@relation 'WHR_merged_3-weka.filters.unsupervised.attribute.ReplaceMissingValues-weka.filters.unsupervised.attribute.Remove-R2,1-weka.filters.unsupervised.attribute.Normalize-S1.0-T0.0'

@attribute country_name {Afghanistan,Albania,Algeria,Argentina,Armenia,Australia,Austria,Azerbaijan,Bahrain,Bangladesh,Belarus,Belgium,Benin,Bolivia,'Bosnia and Herzegovina',Botswana,Brazil,Bulgaria,'Burkina Faso',Burundi,Cambodia,Cameroon,Canada,'Central African Republic',Chad,Chile,China,Colombia,Comoros,Congo,'Costa Rica','C te d Ivoire',Croatia,Cyprus,Czechia,Denmark,'Dominican Republic','DR Congo',Ecuador,Egypt,'El Salvador',Estonia,Eswatini,Ethiopia,Finland,France,Gabon,Gambia,Georgia,Germany,Ghana,Greece,Guatemala,Guinea,Haiti,Honduras,'Hong Kong SAR of China',Hungary,Iceland,India,Indonesia,Iran,Iraq,Ireland,Israel,Italy,Jamaica,Japan,Jordan,Kazakhstan,Kenya,Kosovo,Kuwait,Kyrgyzstan,'Lao PDR',Latvia,Lebanon,Lesotho,Liberia,Libya,Lithuania,Luxembourg,Macedonia,Madagascar,Malawi,Malaysia,Maldives,Mali,Malta,Mauritania,Mauritius,Mexico,Mongolia,Montenegro,Morocco,Mozambique,Myanmar,Namibia,Nepal,Netherlands,'New Zealand',Nicaragua,Niger,Nigeria,'North Cyprus','North Macedonia',Norway,Pakistan,Panama,Paraguay,Peru,Philippines,Poland,Portugal,'Republic of Korea','Republic of Moldova',Romania,'Russian Federation',Rwanda,'Saudi Arabia',Senegal,Serbia,'Sierra Leone',Singapore,Slovakia,Slovenia,'South Africa','South Sudan',Spain,'Sri Lanka','State of Palestine',Swaziland,Sweden,Switzerland,'Taiwan Province of China',Tajikistan,Tanzania,Thailand,Togo,'Trinidad and Tobago',Tunisia,'T rkiye',Turkmenistan,Uganda,Ukraine,'United Arab Emirates','United Kingdom','United States',Uruguay,Uzbekistan,Venezuela,'Viet Nam',Yemen,Zambia,Zimbabwe,'Czech Republic',Qatar,Russia,Belize,'South Korea',Moldova,Turkey,'Hong Kong S.A.R. of China',Somalia,Vietnam,Bhutan,'Palestinian Territories','Congo (Brazzaville)','Congo (Kinshasa)','Ivory Coast',Sudan,Angola,Syria,Laos}
@attribute year numeric
@attribute ladder_score numeric
@attribute upperwhisker numeric
@attribute lowerwhisker numeric
@attribute log_gdp_per_capita numeric
@attribute social_support numeric
@attribute healthy_life_expectancy numeric
@attribute freedom_to_make_life_choices numeric
@attribute generosity numeric
@attribute perceptions_of_corruption numeric

@data
Albania,2023,0.476377,0.486024,0.466939,0.650973,0.533512,0.561126,0.774446,0.32243,0.093333
Albania,2022,0.470807,0.478932,0.462857,0.655953,0.551609,0.422164,0.590613,0.310748,0.070476
Albania,2021,0.454714,0.461202,0.448163,0.651426,0.347185,0.632366,0.541069,0.32243,0.053333
Albania,2020,0.437797,0.443054,0.432857,0.456315,0.268767,0.568162,0.514993,0.392523,0.045714
Albania,2019,0.389519,0.392783,0.386327,0.410593,0.470509,0.744063,0.477184,0.399533,0.047619
Algeria,2023,0.488756,0.493534,0.483878,0.599366,0.712466,0.49956,0.196871,0.212617,0.380952
Algeria,2022,0.481535,0.488319,0.474898,0.612494,0.784182,0.359719,0.20339,0.170561,0.289524
Algeria,2021,0.438828,0.439091,0.438776,0.617021,0.564343,0.565523,0.065189,0.247664,0.285714
Algeria,2020,0.390345,0.392365,0.388367,0.428248,0.426944,0.485488,0.029987,0.336449,0.228571
Argentina,2023,0.658758,0.666667,0.65102,0.707107,0.839812,0.514512,0.762712,0.203271,0.152381
Argentina,2022,0.624923,0.6335,0.616327,0.719783,0.844504,0.37555,0.640156,0.205607,0.15619
Argentina,2021,0.613163,0.62161,0.604898,0.720688,0.652815,0.582234,0.598435,0.189252,0.161905
Argentina,2020,0.605323,0.611181,0.599796,0.52603,0.571046,0.568162,0.584094,0.161215,0.127619
Argentina,2019,0.614813,0.619316,0.610204,0.465369,0.83445,0.747581,0.554107,0.163551,0.114286
Armenia,2023,0.50753,0.511055,0.504082,0.653689,0.687668,0.530343,0.722295,0.119159,0.329524
Armenia,2022,0.484217,0.492282,0.476122,0.663649,0.674263,0.389622,0.59322,0.123832,0.304762
Armenia,2021,0.495977,0.502503,0.489388,0.649163,0.463807,0.587511,0.602347,0.126168,0.4
Armenia,2020,0.472045,0.477055,0.466939,0.450883,0.422252,0.514512,0.578879,0.184579,0.377143
Armenia,2019,0.347019,0.350855,0.343265,0.365776,0.607909,0.682498,0.367666,0.25,0.2
Australia,2023,0.838044,0.840843,0.835306,0.839294,0.893432,0.608619,0.860495,0.525701,0.615238
Australia,2022,0.845884,0.848978,0.842653,0.859665,0.91756,0.467898,0.757497,0.565421,0.590476
Australia,2021,0.859707,0.862328,0.857347,0.860118,0.720509,0.67898,0.756193,0.602804,0.649524
Australia,2020,0.86404,0.866708,0.861633,0.657764,0.635389,0.704485,0.718383,0.679907,0.60381
Australia,2019,0.872292,0.875052,0.869592,0.593029,0.904155,0.899736,0.685789,0.759346,0.64
Austria,2023,0.806685,0.808511,0.804898,0.853327,0.809651,0.612137,0.791395,0.5,0.580952
Austria,2022,0.846297,0.848144,0.84449,0.87234,0.840483,0.470536,0.696219,0.446262,0.590476
Austria,2021,0.859913,0.860868,0.85898,0.874151,0.69504,0.680739,0.687093,0.450935,0.626667
Austria,2020,0.881576,0.881727,0.881224,0.675419,0.626005,0.687775,0.709257,0.502336,0.55619
Austria,2019,0.88694,0.886525,0.887551,0.596197,0.877346,0.880387,0.661017,0.598131,0.535238
Azerbaijan,2023,0.391582,0.397997,0.385306,0.64871,0.50134,0.436236,0.745763,0.261682,0.379048
Azerbaijan,2021,0.44935,0.44952,0.449388,0.660027,0.646783,0.492524,0.658409,0.053738,0.649524
Azerbaijan,2020,0.448937,0.446391,0.451224,0.464011,0.477882,0.475814,0.560626,0.100467,0.525714
Azerbaijan,2019,0.4477,0.442637,0.452653,0.448167,0.705764,0.64292,0.485007,0.093458,0.470476
Bahrain,2022,0.655663,0.679808,0.632041,0.852422,0.764745,0.342128,0.850065,0.464953,0.262857
Bahrain,2021,0.753456,0.765332,0.741633,0.839294,0.603887,0.549692,0.778357,0.464953,0.295238
Bahrain,2020,0.753456,0.765332,0.741633,0.637845,0.516756,0.582234,0.736636,0.574766,0.264762
Bahrain,2019,0.666804,0.683771,0.650408,0.587144,0.795576,0.737907,0.670143,0.670561,0.241905
Bangladesh,2023,0.183825,0.184397,0.183265,0.507922,0.081099,0.451187,0.885267,0.327103,0.318095
Bangladesh,2022,0.265525,0.272424,0.258776,0.512902,0.258043,0.312225,0.67927,0.324766,0.314286
Bangladesh,2021,0.445636,0.448894,0.442653,0.479855,0.325737,0.510994,0.685789,0.292056,0.35619
Bangladesh,2020,0.418816,0.418231,0.419184,0.28746,0.262735,0.452067,0.661017,0.376168,0.312381
Bangladesh,2019,0.379204,0.375678,0.382449,0.251698,0.496649,0.611258,0.662321,0.413551,0.337143
Belarus,2021,0.583041,0.592407,0.574082,0.707107,0.689678,0.55321,0.32073,0.093458,0.537143
Belarus,2020,0.523829,0.524614,0.522857,0.508828,0.589142,0.492524,0.29987,0.163551,0.379048
Belarus,2019,0.525067,0.522111,0.527959,0.461295,0.843834,0.662269,0.254237,0.21028,0.369524
Belgium,2023,0.804415,0.803296,0.80551,0.845632,0.879357,0.60686,0.825293,0.397196,0.592381
Belgium,2022,0.797194,0.795995,0.798571,0.863287,0.885389,0.46438,0.644068,0.320093,0.52
Belgium,2021,0.786053,0.788486,0.783673,0.863287,0.655496,0.671944,0.516297,0.114486,0.388571
Belgium,2020,0.792036,0.79078,0.793265,0.662291,0.58311,0.656992,0.512386,0.205607,0.35619
Belgium,2019,0.798226,0.797038,0.799184,0.586691,0.851877,0.848725,0.526728,0.343458,0.398095
Benin,2023,0.285125,0.292032,0.278571,0.413762,0,0.24978,0.614081,0.261682,0.48
Benin,2022,0.284506,0.29078,0.278367,0.418289,0.076408,0.109059,0.501956,0.266355,0.481905
Benin,2019,0.458222,0.471005,0.445714,0.165686,0.150134,0.288478,0.404172,0.46028,0.24
Bolivia,2023,0.575407,0.580935,0.570204,0.550928,0.704424,0.4292,0.812256,0.233645,0.11619
Bolivia,2022,0.554776,0.560492,0.549388,0.56134,0.709786,0.289358,0.719687,0.240654,0.114286
Bolivia,2021,0.537446,0.542136,0.532857,0.568583,0.504021,0.488127,0.692308,0.261682,0.121905
Bolivia,2020,0.561378,0.565081,0.557755,0.381168,0.438338,0.427441,0.657106,0.32243,0.121905
Bolivia,2019,0.567774,0.570922,0.564898,0.330919,0.679625,0.582234,0.623207,0.32243,0.139048
'Bosnia and Herzegovina',2023,0.594595,0.598456,0.590816,0.663196,0.797587,0.516271,0.684485,0.574766,0
'Bosnia and Herzegovina',2022,0.544254,0.555903,0.532653,0.664101,0.826408,0.377309,0.507171,0.577103,0.015238
'Bosnia and Herzegovina',2021,0.572106,0.57718,0.567143,0.664554,0.630027,0.584872,0.458931,0.570093,0.011429
'Bosnia and Herzegovina',2020,0.581391,0.584272,0.578571,0.46718,0.530161,0.543536,0.389831,0.609813,0.009524
'Bosnia and Herzegovina',2019,0.552713,0.553817,0.551633,0.415573,0.72118,0.715919,0.27249,0.616822,0.001905
Botswana,2023,0.08005,0.09345,0.067143,0.654142,0.563673,0.211961,0.614081,0.03271,0.15619
Botswana,2022,0.090778,0.123488,0.058776,0.665912,0.61193,0.076517,0.500652,0.049065,0.135238
Botswana,2021,0.098205,0.116187,0.080612,0.680398,0.460456,0.246262,0.619296,0.028037,0.194286
Botswana,2020,0.09738,0.104506,0.090204,0.49751,0.399464,0.299033,0.577575,0.063084,0.167619
Botswana,2019,0.099856,0.101794,0.097959,0.451788,0.642091,0.434477,0.538462,0.077103,0.194286
Brazil,2023,0.676088,0.684189,0.668163,0.647352,0.764745,0.48197,0.767927,0.303738,0.270476
Brazil,2022,0.64576,0.655403,0.636122,0.658216,0.752011,0.340369,0.602347,0.306075,0.260952
Brazil,2021,0.680421,0.682937,0.677959,0.661838,0.613941,0.540897,0.586701,0.306075,0.255238
Brazil,2020,0.688054,0.689403,0.686735,0.465369,0.546917,0.502199,0.54498,0.331776,0.222857
Brazil,2019,0.697545,0.697956,0.697143,0.431417,0.827748,0.673703,0.504563,0.308411,0.20381
Bulgaria,2023,0.509181,0.512933,0.50551,0.737438,0.898794,0.498681,0.683181,0.193925,0.011429
Bulgaria,2022,0.5098,0.515645,0.504082,0.740154,0.890751,0.358839,0.601043,0.247664,0.024762
Bulgaria,2021,0.4902,0.495411,0.485102,0.735627,0.6937,0.562885,0.608866,0.287383,0.04
Bulgaria,2020,0.468537,0.471631,0.465306,0.534631,0.621314,0.512753,0.518905,0.292056,0.009524
Bulgaria,2019,0.434702,0.433458,0.435714,0.47397,0.893432,0.684257,0.419817,0.242991,0
'Burkina Faso',2023,0.320404,0.328744,0.312245,0.342236,0.373324,0.240985,0.504563,0.404206,0.340952
'Burkina Faso',2022,0.338973,0.356487,0.321633,0.347669,0.459786,0.094107,0.421121,0.439252,0.215238
'Burkina Faso',2021,0.345575,0.355444,0.336122,0.352648,0.292895,0.281442,0.372881,0.434579,0.24
'Burkina Faso',2020,0.37941,0.392783,0.366327,0.16478,0.230563,0.157432,0.371578,0.425234,0.232381
'Burkina Faso',2019,0.366,0.371297,0.360612,0.136713,0.536863,0.275286,0.294654,0.434579,0.24
Burundi,2019,0.160924,0.18252,0.139796,0,0.184987,0.259455,0.233377,0.436916,0.40381
Cambodia,2023,0.277698,0.278682,0.276735,0.457673,0.597185,0.388742,1,0.397196,0.135238
Cambodia,2022,0.288426,0.291615,0.28551,0.464011,0.600536,0.248901,0.876141,0.411215,0.097143
Cambodia,2021,0.339385,0.345223,0.333878,0.461295,0.404826,0.444151,0.839635,0.38785,0.129524
Cambodia,2020,0.378585,0.386525,0.37102,0.272974,0.369973,0.37467,0.790091,0.490654,0.11619
Cambodia,2019,0.382298,0.386316,0.378571,0.246718,0.632038,0.51715,0.754889,0.544393,0.139048
Cameroon,2023,0.387662,0.393408,0.382245,0.42689,0.487936,0.253298,0.554107,0.294393,0.114286
Cameroon,2022,0.408087,0.417605,0.398776,0.436849,0.497989,0.103782,0.402868,0.336449,0.112381
Cameroon,2021,0.423561,0.433458,0.413673,0.438207,0.364611,0.278804,0.392438,0.35514,0.140952
Cameroon,2020,0.442954,0.454318,0.431837,0.245813,0.286863,0.139842,0.428944,0.478972,0.110476
Cameroon,2019,0.431195,0.439508,0.423061,0.228158,0.517426,0.237467,0.447197,0.462617,0.102857
Canada,2023,0.805653,0.808093,0.803061,0.832956,0.892091,0.616535,0.826597,0.537383,0.700952
Canada,2022,0.818238,0.820192,0.816122,0.851517,0.908847,0.475814,0.730117,0.509346,0.693333
Canada,2021,0.831442,0.833751,0.829184,0.85378,0.710456,0.688654,0.734029,0.507009,0.700952
Canada,2020,0.847535,0.850021,0.845102,0.655048,0.613941,0.701847,0.719687,0.574766,0.638095
Canada,2019,0.874149,0.876304,0.872041,0.589407,0.876005,0.899736,0.714472,0.658879,0.670476
Chad,2023,0.304518,0.317063,0.292449,0.272974,0.453753,0.175022,0.410691,0.509346,0.215238
Chad,2022,0.289251,0.317689,0.261224,0.281575,0.558981,0.037819,0.387223,0.595794,0.167619
Chad,2021,0.259129,0.290572,0.228367,0.299683,0.253351,0.197889,0.109518,0.425234,0.146667
Chad,2020,0.280586,0.29829,0.263469,0.115437,0.150804,0,0.187744,0.502336,0.16
Chad,2019,0.294615,0.304547,0.284694,0.136713,0.409517,0.095866,0.173403,0.492991,0.16381
Chile,2023,0.694244,0.696287,0.692449,0.731553,0.831769,0.591909,0.723598,0.273364,0.142857
Chile,2022,0.68888,0.691281,0.686327,0.744681,0.841823,0.449428,0.586701,0.306075,0.144762
Chile,2021,0.655457,0.657489,0.653469,0.747397,0.63807,0.657872,0.474576,0.28972,0.131429
Chile,2020,0.655457,0.657489,0.653265,0.543232,0.548257,0.596306,0.445893,0.371495,0.133333
Chile,2019,0.667011,0.66917,0.665102,0.496605,0.800938,0.781882,0.418514,0.364486,0.12
China,2023,0.614401,0.615561,0.613265,0.677682,0.744638,0.55321,0.792699,0.308411,0.312381
China,2022,0.582422,0.58302,0.581837,0.683567,0.75134,0.411609,0.743155,0.268692,0.27619
China,2021,0.534351,0.529829,0.538776,0.682662,0.5563,0.620053,0.730117,0.231308,0.270476
China,2020,0.483598,0.477055,0.49,0.480308,0.440349,0.584872,0.704042,0.21729,0.222857
China,2019,0.439241,0.430747,0.447551,0.448619,0.672922,0.762533,0.659713,0.184579,0.222857
Colombia,2023,0.557046,0.56237,0.551837,0.650521,0.745979,0.569921,0.714472,0.168224,0.112381
Colombia,2022,0.543635,0.550063,0.537551,0.658669,0.727212,0.427441,0.607562,0.186916,0.129524
Colombia,2021,0.574789,0.582603,0.567143,0.657311,0.536863,0.633245,0.585398,0.203271,0.146667
Colombia,2020,0.622447,0.630371,0.614694,0.4622,0.494638,0.540897,0.597132,0.233645,0.12
Colombia,2019,0.6536,0.659992,0.647551,0.42191,0.808311,0.712401,0.56193,0.214953,0.087619
Comoros,2023,0.117805,0.134335,0.101633,0.405613,0.134048,0.325418,0.099087,0.299065,0.304762
Comoros,2022,0.113472,0.138506,0.089184,0.413762,0.133378,0.189094,0.027379,0.301402,0.27619
Comoros,2021,0.332989,0.362745,0.303673,0.406971,0.233244,0.372911,0.116037,0.455607,0.238095
Comoros,2020,0.266969,0.28035,0.253673,0.220914,0.160188,0.245383,0.138201,0.563084,0.192381
Comoros,2019,0.266969,0.28035,0.253673,0.188321,0.398794,0.384345,0.110821,0.60514,0.190476
Congo,2023,0.459253,0.476846,0.442245,0.403803,0.331099,0.269129,0.556714,0.28972,0.262857
Congo,2022,0.468744,0.486024,0.451837,0.416931,0.35992,0.127529,0.479791,0.313084,0.259048
Congo,2021,0.429131,0.443262,0.415306,0.430059,0.185657,0.312225,0.436767,0.303738,0.278095
Congo,2020,0.484217,0.505423,0.463469,0.234495,0.176944,0.270009,0.371578,0.336449,0.23619
Congo,2019,0.453683,0.466208,0.441429,0.287008,0.422252,0.402814,0.3794,0.273364,0.226667
'Costa Rica',2023,0.817,0.822069,0.812245,0.706655,0.83445,0.581354,0.91395,0.254673,0.234286
'Costa Rica',2022,0.745616,0.750939,0.740204,0.718425,0.812332,0.442392,0.765319,0.231308,0.220952
'Costa Rica',2021,0.740045,0.745307,0.734898,0.717067,0.620643,0.654354,0.736636,0.207944,0.194286
'Costa Rica',2020,0.84052,0.848769,0.832653,0.513354,0.561662,0.635004,0.752282,0.245327,0.158095
'Costa Rica',2019,0.851248,0.855027,0.847755,0.444092,0.835791,0.826737,0.715776,0.306075,0.182857
'C te d Ivoire',2023,0.430163,0.440968,0.419592,0.488909,0.301609,0.253298,0.588005,0.280374,0.312381
'C te d Ivoire',2022,0.424593,0.435544,0.413673,0.495247,0.30563,0.105541,0.483703,0.32243,0.249524
'C te d Ivoire',2021,0.462142,0.474343,0.45,0.495247,0.210456,0.283201,0.462842,0.348131,0.23619
'C te d Ivoire',2020,0.47679,0.490196,0.463673,0.302852,0.188338,0.045734,0.445893,0.413551,0.175238
'C te d Ivoire',2019,0.461729,0.472883,0.45102,0.243096,0.450402,0.136324,0.392438,0.397196,0.177143
Croatia,2023,0.608005,0.612641,0.603469,0.774106,0.882708,0.560246,0.48631,0.149533,0.081905
Croatia,2022,0.64576,0.652274,0.639388,0.781802,0.88941,0.417766,0.526728,0.203271,0.005714
Croatia,2021,0.64576,0.650605,0.641224,0.771842,0.707105,0.623571,0.57236,0.254673,0
Croatia,2020,0.595626,0.597622,0.593469,0.56632,0.61059,0.618294,0.46545,0.259346,0
Croatia,2019,0.517846,0.515019,0.520612,0.502037,0.792895,0.792436,0.371578,0.266355,0.022857
Cyprus,2023,0.634,0.640801,0.627347,0.812132,0.729893,0.654354,0.564537,0.28972,0.093333
Cyprus,2022,0.646792,0.652065,0.641633,0.825713,0.734584,0.510114,0.468057,0.242991,0.095238
Cyprus,2021,0.665566,0.669587,0.661633,0.821639,0.523458,0.720317,0.458931,0.287383,0.118095
Cyprus,2020,0.665979,0.669378,0.662857,0.623359,0.426944,0.704485,0.479791,0.415888,0.11619
Cyprus,2019,0.652775,0.656654,0.64898,0.549117,0.684316,0.902375,0.473272,0.53271,0.097143
Czechia,2023,0.789561,0.791197,0.787959,0.807153,0.926944,0.561126,0.900913,0.413551,0.129524
Czechia,2022,0.794306,0.797038,0.791633,0.82526,0.949062,0.419525,0.778357,0.369159,0.095238
Czechia,2021,0.809779,0.81748,0.802245,0.821639,0.758713,0.628848,0.735332,0.369159,0.091429
Czechia,2020,0.819063,0.824364,0.813878,0.62019,0.644772,0.618294,0.63103,0.121495,0.087619
Czechia,2019,0.807922,0.810388,0.80551,0.548665,0.855898,0.787159,0.53455,0.107477,0.095238
Denmark,2022,0.947184,0.950563,0.944082,0.8823,0.951743,0.472296,0.831812,0.485981,1
Denmark,2020,0.954198,0.954735,0.953469,0.679946,0.656836,0.671064,0.769231,0.485981,0.92381
Denmark,2019,0.959563,0.959741,0.959184,0.600724,0.921582,0.861038,0.741851,0.567757,0.942857
'Dominican Republic',2023,0.583454,0.595953,0.571224,0.686736,0.766756,0.449428,0.826597,0.200935,0.373333
'Dominican Republic',2022,0.53105,0.542762,0.519592,0.695337,0.736595,0.308707,0.687093,0.193925,0.371429
'Dominican Republic',2021,0.565711,0.576345,0.555306,0.696243,0.586461,0.507476,0.664928,0.196262,0.340952
'Dominican Republic',2020,0.526099,0.53713,0.515306,0.500679,0.503351,0.488127,0.632334,0.235981,0.274286
'Dominican Republic',2019,0.555808,0.566542,0.545306,0.444998,0.80496,0.652595,0.608866,0.261682,0.220952
'DR Congo',2023,0.061894,0.073425,0.050612,0.241738,0.35992,0.230431,0.491525,0.441589,0.137143
'DR Congo',2022,0.043738,0.059241,0.028571,0.24038,0.439678,0.092348,0.363755,0.42757,0.129524
'DR Congo',2019,0.271508,0.295161,0.248367,0.028067,0.47252,0.243624,0.350717,0.593458,0.154286
Ecuador,2023,0.563235,0.571548,0.554898,0.595292,0.685657,0.562885,0.664928,0.203271,0.148571
Ecuador,2022,0.528987,0.536504,0.521633,0.607967,0.700402,0.418646,0.604954,0.184579,0.131429
Ecuador,2021,0.523623,0.530455,0.517143,0.612042,0.503351,0.622691,0.611473,0.186916,0.158095
Ecuador,2020,0.571281,0.576763,0.565918,0.423268,0.454424,0.562885,0.604954,0.25,0.118095
Ecuador,2019,0.604498,0.608886,0.600408,0.386148,0.732574,0.737907,0.598435,0.268692,0.165714
Egypt,2023,0.2026,0.199416,0.20551,0.62019,0.581769,0.4292,0.51369,0.058411,0.493333
Egypt,2022,0.242418,0.245515,0.239592,0.623359,0.565684,0.286719,0.483703,0.088785,0.47619
Egypt,2021,0.266763,0.264289,0.26898,0.628339,0.404826,0.48197,0.48631,0.095794,0.48381
Egypt,2020,0.265731,0.263037,0.268367,0.43187,0.347855,0.37467,0.456323,0.161215,0.175238
Egypt,2019,0.238498,0.231957,0.245102,0.396107,0.573056,0.525066,0.362451,0.161215,0.180952
'El Salvador',2023,0.716732,0.727785,0.705714,0.572657,0.63807,0.48285,0.938722,0.193925,0.481905
'El Salvador',2022,0.645141,0.656446,0.633878,0.578542,0.613941,0.336851,0.804433,0.184579,0.422857
'El Salvador',2021,0.644729,0.654985,0.634694,0.572657,0.428954,0.533861,0.743155,0.207944,0.40381
'El Salvador',2020,0.632556,0.642053,0.623061,0.382526,0.366622,0.496922,0.676662,0.271028,0.304762
'El Salvador',2019,0.691768,0.699207,0.68449,0.339067,0.684316,0.662269,0.558018,0.278037,0.222857
Estonia,2023,0.712399,0.71214,0.712449,0.793119,0.937668,0.577836,0.924381,0.38785,0.76381
Estonia,2022,0.713844,0.714226,0.713673,0.813943,0.936997,0.434477,0.82399,0.357477,0.708571
Estonia,2021,0.690324,0.689403,0.69102,0.811679,0.739946,0.640281,0.773142,0.287383,0.634286
Estonia,2020,0.658964,0.657697,0.660204,0.60842,0.637399,0.562885,0.710561,0.278037,0.500952
Estonia,2019,0.62451,0.622028,0.626735,0.539611,0.88807,0.741425,0.627119,0.292056,0.384762
Eswatini,2023,0.104601,0.117438,0.092041,0.56813,0.534182,0.154793,0.245111,0.13785,0.220952
Eswatini,2021,0.289045,0.312265,0.266327,0.576732,0.441019,0.173263,0.212516,0.088785,0.293333
Ethiopia,2023,0.178667,0.185023,0.172449,0.358533,0.52748,0.369393,0.449804,0.630841,0.192381
Ethiopia,2022,0.226119,0.242595,0.209796,0.358986,0.660858,0.219877,0.462842,0.661215,0.192381
Ethiopia,2021,0.257066,0.261786,0.252653,0.356722,0.456434,0.401935,0.490222,0.478972,0.259048
Ethiopia,2020,0.264081,0.263663,0.264286,0.167497,0.369303,0.291117,0.462842,0.563084,0.217143
Ethiopia,2019,0.245719,0.2403,0.25102,0.142598,0.585121,0.425682,0.413299,0.53271,0.222857
Finland,2020,1,1,1,0.654595,0.655496,0.651715,0.77575,0.28972,0.91619
Finland,2019,0.993192,0.992908,0.993469,0.581711,0.919571,0.845207,0.73794,0.373832,0.910476
France,2023,0.745616,0.745724,0.74551,0.822997,0.817694,0.639402,0.722295,0.261682,0.535238
France,2022,0.756344,0.756154,0.756735,0.840199,0.874665,0.497801,0.633638,0.193925,0.514286
France,2021,0.761708,0.760951,0.762245,0.843368,0.731233,0.710642,0.614081,0.163551,0.506667
France,2020,0.762327,0.761786,0.762857,0.643278,0.63874,0.707124,0.573664,0.214953,0.447619
France,2019,0.756963,0.756571,0.757143,0.574015,0.892091,0.905893,0.54498,0.264019,0.432381
Gabon,2023,0.435527,0.444931,0.426327,0.635129,0.60992,0.302551,0.547588,0.10514,0.190476
Gabon,2022,0.420879,0.430747,0.41102,0.650973,0.598525,0.16095,0.325945,0.084112,0.194286
Gabon,2021,0.404993,0.413225,0.397143,0.66048,0.408847,0.348285,0.322034,0.074766,0.188571
Gabon,2020,0.383124,0.393826,0.372653,0.469443,0.38807,0.318382,0.42764,0.135514,0.121905
Gabon,2019,0.378378,0.383187,0.373673,0.447261,0.655496,0.459982,0.355932,0.121495,0.106667
Gambia,2023,0.307407,0.31602,0.298776,0.33952,0.372654,0.290237,0.473272,0.757009,0.091429
Gambia,2022,0.264906,0.286608,0.243878,0.3445,0.325737,0.153034,0.247718,0.775701,0.062857
Gambia,2021,0.447493,0.479558,0.415918,0.355364,0.330429,0.324538,0.353325,0.906542,0.19619
Gambia,2019,0.362286,0.369629,0.354898,0.116342,0.506032,0.310466,0.400261,0.995327,0.300952
Georgia,2023,0.451826,0.453275,0.450408,0.664101,0.577748,0.460862,0.761408,0,0.331429
Georgia,2022,0.436146,0.439925,0.432653,0.668628,0.548928,0.3219,0.577575,0,0.382857
Georgia,2021,0.408087,0.410722,0.40551,0.664101,0.324397,0.523307,0.537158,0,0.39619
Georgia,2020,0.39117,0.393826,0.388776,0.466274,0.229223,0.437995,0.511082,0.074766,0.344762
Georgia,2019,0.346194,0.343763,0.348571,0.383431,0.404155,0.611258,0.507171,0.11215,0.331429
Germany,2023,0.76831,0.772841,0.763673,0.84699,0.845845,0.617414,0.787484,0.406542,0.700952
Germany,2022,0.804002,0.809136,0.79898,0.868719,0.853217,0.474055,0.680574,0.357477,0.695238
Germany,2021,0.833299,0.836879,0.83,0.870982,0.643432,0.682498,0.637549,0.380841,0.681905
Germany,2020,0.858263,0.859825,0.856531,0.669986,0.579759,0.665787,0.657106,0.455607,0.582857
Germany,2019,0.841964,0.841886,0.842041,0.594839,0.831769,0.854881,0.610169,0.588785,0.588571
Ghana,2023,0.266969,0.268252,0.265714,0.487551,0.414879,0.316623,0.687093,0.42757,0.053333
Ghana,2022,0.332164,0.337714,0.326735,0.498416,0.420912,0.173263,0.560626,0.492991,0.066667
Ghana,2021,0.38725,0.394034,0.380612,0.503395,0.313003,0.359719,0.526728,0.537383,0.106667
Ghana,2020,0.431813,0.439925,0.424082,0.307832,0.313003,0.252419,0.548892,0.626168,0.110476
Ghana,2019,0.444192,0.449103,0.439388,0.260751,0.561662,0.379947,0.496741,0.609813,0.108571
Greece,2023,0.606354,0.608469,0.604082,0.762336,0.769437,0.612137,0.314211,0.042056,0.177143
Greece,2022,0.605736,0.607843,0.603673,0.773201,0.75,0.470536,0.198175,0.018692,0.184762
Greece,2021,0.609243,0.611806,0.606735,0.770937,0.571046,0.680739,0.199478,0.035047,0.205714
Greece,2020,0.562822,0.56383,0.561633,0.576279,0.457775,0.668426,0.191656,0,0.140952
Greece,2019,0.519909,0.520859,0.51898,0.510638,0.697721,0.861038,0.101695,0,0.093333
Guatemala,2023,0.679183,0.698164,0.660612,0.570394,0.697721,0.41073,0.833116,0.245327,0.148571
Guatemala,2022,0.650918,0.678348,0.624286,0.582617,0.710456,0.272647,0.697523,0.247664,0.125714
Guatemala,2021,0.674025,0.69879,0.649796,0.576732,0.47118,0.459103,0.73794,0.261682,0.219048
Guatemala,2020,0.709717,0.723196,0.696327,0.382526,0.4437,0.456464,0.706649,0.380841,0.2
Guatemala,2019,0.70229,0.709846,0.694694,0.341331,0.701072,0.620932,0.674055,0.399533,0.186667
Guinea,2023,0.418403,0.428869,0.408367,0.376188,0.331099,0.207564,0.554107,0.490654,0.20381
Guinea,2022,0.428512,0.438673,0.418571,0.382073,0.434316,0.063325,0.355932,0.476636,0.194286
Guinea,2021,0.39117,0.400083,0.382245,0.383884,0.293566,0.241865,0.3103,0.5,0.220952
Guinea,2020,0.410357,0.427618,0.393469,0.190131,0.181635,0.181179,0.375489,0.584112,0.211429
Guinea,2019,0.403136,0.413433,0.393061,0.17655,0.41756,0.293755,0.359844,0.581776,0.213333
Honduras,2023,0.613369,0.626617,0.600408,0.493889,0.607909,0.441513,0.813559,0.408879,0.154286
Honduras,2022,0.624716,0.643721,0.605918,0.504753,0.632708,0.299912,0.674055,0.441589,0.118095
Honduras,2021,0.62451,0.642261,0.607143,0.502943,0.507373,0.488127,0.633638,0.471963,0.144762
Honduras,2020,0.60326,0.619733,0.587347,0.318244,0.441689,0.521548,0.628422,0.563084,0.158095
Honduras,2019,0.610274,0.619942,0.600816,0.271163,0.709786,0.69657,0.615385,0.600467,0.165714
'Hong Kong SAR of China',2023,0.478853,0.478306,0.479388,0.864192,0.707775,0.753738,0.507171,0.343458,0.765714
'Hong Kong SAR of China',2022,0.477202,0.478306,0.476327,0.883205,0.719169,0.617414,0.405476,0.287383,0.742857
'Hong Kong SAR of China',2021,0.501341,0.498748,0.503673,0.885921,0.553619,0.828496,0.396349,0.343458,0.729524
'Hong Kong SAR of China',2020,0.512069,0.513767,0.510204,0.690358,0.477882,0.7854,0.40678,0.542056,0.651429
'Hong Kong SAR of China',2019,0.518878,0.519608,0.518367,0.623359,0.747989,1,0.473272,0.672897,0.632381
Hungary,2023,0.623478,0.628703,0.618367,0.779538,0.938338,0.524186,0.632334,0.287383,0.127619
Hungary,2022,0.62843,0.633917,0.623061,0.794024,0.932306,0.382586,0.528031,0.245327,0.12381
Hungary,2021,0.637714,0.641844,0.633673,0.791308,0.740617,0.587511,0.507171,0.182243,0.121905
Hungary,2020,0.618321,0.620567,0.616122,0.588954,0.64008,0.540897,0.466754,0.156542,0.07619
Hungary,2019,0.619971,0.619107,0.62102,0.526935,0.867962,0.709763,0.378096,0.163551,0.053333
Iceland,2023,0.934599,0.940342,0.929184,0.851517,0.997989,0.631486,0.942634,0.602804,0.346667
Iceland,2022,0.93563,0.941802,0.929388,0.871888,1,0.491645,0.837027,0.584112,0.35619
Iceland,2021,0.941201,0.947226,0.93551,0.876415,0.798928,0.706245,0.810952,0.630841,0.36381
Iceland,2020,0.940582,0.951189,0.930204,0.670892,0.699732,0.67898,0.784876,0.684579,0.32381
Iceland,2019,0.930266,0.940968,0.92,0.600724,0.951743,0.880387,0.73794,0.845794,0.27619
India,2023,0.218486,0.211306,0.22551,0.527841,0.351877,0.366755,0.874837,0.406542,0.232381
India,2022,0.214772,0.204839,0.22449,0.524672,0.365952,0.221636,0.767927,0.408879,0.211429
India,2021,0.161337,0.149771,0.172653,0.528293,0.16622,0.414248,0.718383,0.462617,0.234286
India,2020,0.170002,0.158323,0.181429,0.335446,0.126005,0.336851,0.685789,0.574766,0.201905
India,2019,0.119249,0.108052,0.130408,0.330919,0.345845,0.475814,0.632334,0.553738,0.201905
Indonesia,2023,0.530844,0.534001,0.527755,0.616116,0.707775,0.415128,0.890482,0.932243,0.104762
Indonesia,2022,0.470807,0.476012,0.46551,0.626528,0.697721,0.276165,0.739244,0.985981,0.072381
Iran,2023,0.397772,0.399249,0.396327,0.649615,0.675603,0.502199,0.352021,0.549065,0.234286
Iran,2022,0.388075,0.390071,0.386122,0.663196,0.652815,0.361478,0.241199,0.535047,0.247619
Iran,2021,0.390551,0.3932,0.387755,0.638298,0.410858,0.564644,0.241199,0.563084,0.278095
Iran,2020,0.356097,0.358365,0.353878,0.466274,0.287534,0.493404,0.233377,0.771028,0.274286
Iran,2019,0.345987,0.348769,0.343469,0.465822,0.508043,0.658751,0.267275,0.647196,0.272381
Iraq,2023,0.447906,0.453275,0.442653,0.565414,0.581769,0.437995,0.428944,0.329439,0.091429
Iraq,2022,0.401485,0.414894,0.388367,0.5799,0.552949,0.28496,0.332464,0.313084,0.072381
Iraq,2021,0.401485,0.414894,0.388367,0.583522,0.371314,0.487247,0.302477,0.343458,0.087619
Iraq,2020,0.383536,0.387985,0.379184,0.411951,0.341823,0.335092,0.268579,0.357477,0.078095
Iraq,2019,0.369301,0.381101,0.357551,0.444545,0.591823,0.465259,0.245111,0.357477,0.139048
Ireland,2023,0.792862,0.796204,0.789592,0.963785,0.845845,0.615655,0.863103,0.478972,0.79619
Ireland,2022,0.807922,0.810597,0.805102,0.974196,0.869303,0.474055,0.730117,0.434579,0.779048
Ireland,2021,0.834743,0.836671,0.832857,0.963785,0.69571,0.685136,0.692308,0.443925,0.777143
Ireland,2020,0.843821,0.84564,0.842041,0.744228,0.646113,0.662269,0.664928,0.556075,0.699048
Ireland,2019,0.845678,0.847309,0.844082,0.655048,0.900134,0.858399,0.64146,0.689252,0.710476
Israel,2023,0.896637,0.895912,0.897347,0.816206,0.928284,0.650836,0.710561,0.357477,0.367619
Israel,2022,0.92387,0.923029,0.924694,0.829787,0.933646,0.507476,0.616688,0.28972,0.300952
Israel,2021,0.901382,0.900292,0.902245,0.826618,0.732574,0.719437,0.615385,0.36215,0.272381
Israel,2020,0.858675,0.858156,0.859184,0.622906,0.634048,0.693052,0.538462,0.485981,0.226667
Israel,2019,0.852899,0.855653,0.85,0.550475,0.854558,0.886544,0.423729,0.623832,0.190476
Italy,2023,0.686817,0.693784,0.679796,0.814848,0.80429,0.633245,0.543677,0.261682,0.140952
Italy,2022,0.703528,0.709428,0.697551,0.829335,0.829088,0.491645,0.445893,0.226636,0.12
Italy,2021,0.716319,0.721736,0.710816,0.83024,0.619303,0.704485,0.411995,0.198598,0.112381
Italy,2020,0.71962,0.722153,0.717347,0.630602,0.544236,0.701847,0.36897,0.310748,0.089524
Italy,2019,0.699814,0.701293,0.698571,0.559529,0.817024,0.899736,0.293351,0.397196,0.07619
Jamaica,2023,0.587374,0.615144,0.56,0.579448,0.801609,0.498681,0.718383,0.207944,0.053333
Jamaica,2022,0.558696,0.576971,0.540612,0.590765,0.80496,0.361478,0.640156,0.184579,0.074286
Jamaica,2021,0.589024,0.607635,0.570612,0.586691,0.614611,0.568162,0.614081,0.186916,0.100952
Jamaica,2020,0.683722,0.731122,0.637551,0.40335,0.538874,0.526825,0.680574,0.231308,0.066667
Jamaica,2019,0.597277,0.62912,0.565918,0.352648,0.857909,0.693052,0.595828,0.271028,0.057143
Japan,2023,0.63235,0.632874,0.631837,0.808511,0.821716,0.690413,0.698827,0.053738,0.417143
Japan,2022,0.646586,0.64685,0.646327,0.826166,0.849866,0.547054,0.599739,0.021028,0.394286
Japan,2021,0.628017,0.62766,0.628367,0.830693,0.644102,0.761653,0.574967,0.016355,0.415238
Japan,2020,0.607592,0.607009,0.608367,0.628791,0.550268,0.737027,0.531943,0.046729,0.365714
Japan,2019,0.593357,0.592824,0.593878,0.573563,0.806971,0.943712,0.520209,0.084112,0.344762
Jordan,2023,0.245719,0.249479,0.242041,0.571299,0.573056,0.522427,0.647979,0.13785,0.36
Jordan,2022,0.232102,0.236128,0.227959,0.58488,0.571046,0.385224,0.548892,0.130841,0.329524
Jordan,2021,0.238704,0.243221,0.23449,0.599366,0.399464,0.593668,0.495437,0.135514,0.380952
Jordan,2020,0.288838,0.293283,0.284286,0.402897,0.373324,0.512753,0.468057,0.184579,0.285714
Jordan,2019,0.337941,0.341886,0.334286,0.355364,0.678284,0.684257,0.428944,0.212617,0.289524
Kazakhstan,2023,0.658758,0.660826,0.656531,0.734269,0.890751,0.489006,0.830508,0.348131,0.228571
Kazakhstan,2022,0.64968,0.652691,0.646735,0.753282,0.913539,0.342128,0.693611,0.317757,0.28381
Kazakhstan,2021,0.668248,0.671673,0.664898,0.755093,0.731903,0.537379,0.636245,0.313084,0.299048
Kazakhstan,2020,0.651331,0.653525,0.64898,0.556813,0.653485,0.4635,0.621904,0.334112,0.251429
Kazakhstan,2019,0.631937,0.632666,0.631224,0.508375,0.88807,0.614776,0.522816,0.359813,0.209524
Kenya,2023,0.304312,0.309762,0.298776,0.469443,0.514075,0.310466,0.551499,0.658879,0.131429
Kenya,2022,0.307819,0.314143,0.301429,0.475781,0.504692,0.167106,0.419817,0.679907,0.104762
Kenya,2021,0.319373,0.328118,0.310816,0.46718,0.319705,0.352682,0.448501,0.752336,0.15619
Kenya,2020,0.332577,0.341469,0.323673,0.272974,0.254692,0.33861,0.504563,0.876168,0.139048
Kenya,2019,0.327625,0.335002,0.320408,0.215482,0.520777,0.471416,0.551499,0.920561,0.127619
Kosovo,2023,0.735713,0.741969,0.729592,0.617474,0.770107,0.526825,0.838331,0.593458,0.139048
Kosovo,2022,0.695894,0.704005,0.687755,0.622001,0.764745,0.327177,0.707953,0.642523,0.085714
Kosovo,2021,0.713844,0.721944,0.705918,0.616569,0.550268,0.50044,0.655802,0.721963,0.066667
Kosovo,2020,0.69672,0.704422,0.689184,0.424174,0.455094,0.424802,0.647979,0.831776,0.026667
Kosovo,2019,0.687023,0.692115,0.682245,0.380263,0.707775,0.591909,0.601043,0.759346,0.017143
Kuwait,2023,0.816175,0.823947,0.808776,0.83522,0.828418,0.581354,0.953064,0.46729,0.327619
Kuwait,2021,0.64184,0.651856,0.632041,0.861928,0.573056,0.656992,0.67927,0.203271,0.28
Kuwait,2020,0.64184,0.651856,0.632041,0.661385,0.488606,0.510114,0.645372,0.280374,0.247619
Kuwait,2019,0.641015,0.646016,0.636327,0.645088,0.74866,0.682498,0.617992,0.310748,0.215238
Kyrgyzstan,2023,0.560966,0.560075,0.561633,0.477139,0.904155,0.51715,0.96219,0.525701,0.057143
Kyrgyzstan,2022,0.583866,0.584689,0.583061,0.480308,0.878686,0.366755,0.833116,0.546729,0.034286
Kyrgyzstan,2021,0.584485,0.585315,0.583878,0.483929,0.657507,0.561126,0.778357,0.485981,0.047619
Kyrgyzstan,2020,0.567155,0.56821,0.565918,0.301041,0.565013,0.440633,0.752282,0.621495,0.038095
Kyrgyzstan,2019,0.52548,0.525031,0.525714,0.232232,0.813003,0.598945,0.676662,0.703271,0.057143
'Lao PDR',2023,0.442335,0.448686,0.436122,0.546854,0.481233,0.372032,0.912647,0.397196,0.318095
'Lao PDR',2022,0.436559,0.450355,0.422857,0.557718,0.485925,0.226033,0.80704,0.432243,0.308571
'Lao PDR',2021,0.442542,0.449103,0.436327,0.560887,0.352547,0.421284,0.760104,0.46028,0.350476
'Lao PDR',2020,0.419847,0.419065,0.420612,0.365776,0.315013,0.290237,0.713168,0.626168,0.340952
'Lao PDR',2019,0.390757,0.387568,0.393878,0.323676,0.575737,0.427441,0.672751,0.63785,0.369524
Latvia,2023,0.668248,0.668335,0.668367,0.769579,0.924933,0.496042,0.743155,0.296729,0.148571
Latvia,2022,0.663916,0.664372,0.663469,0.786329,0.922922,0.356201,0.63103,0.25,0.135238
Latvia,2021,0.657107,0.656028,0.658367,0.784065,0.732574,0.560246,0.529335,0.175234,0.171429
Latvia,2020,0.626573,0.624322,0.628776,0.581711,0.615952,0.516271,0.402868,0.191589,0.169524
Latvia,2019,0.609655,0.606592,0.612653,0.516523,0.86193,0.684257,0.303781,0.175234,0.171429
Lebanon,2020,0.327832,0.329787,0.325918,0.473065,0.495979,0.523307,0.102999,0.327103,0.049524
Lebanon,2019,0.366619,0.364414,0.368571,0.402445,0.713137,0.693931,0.11734,0.371495,0.041905
Lesotho,2023,0.039406,0.074885,0.004898,0.349027,0.484584,0,0.556714,0.191589,0.161905
Lesotho,2021,0.106664,0.133083,0.080816,0.37981,0.482574,0,0.421121,0.17757,0.034286
Lesotho,2020,0.106664,0.133083,0.080816,0.204165,0.404155,0.006157,0.402868,0.240654,0.028571
Lesotho,2019,0.135754,0.14685,0.124898,0.205976,0.644102,0.08883,0.408083,0.240654,0.095238
Liberia,2023,0.262843,0.284522,0.241429,0.280217,0.365282,0.264732,0.586701,0.415888,0.142857
Liberia,2022,0.21601,0.253442,0.179592,0.284292,0.345845,0.124011,0.488918,0.511682,0.135238
Liberia,2021,0.438828,0.483521,0.394898,0.287913,0.363271,0.271768,0.402868,0.415888,0.152381
Liberia,2020,0.33629,0.359408,0.313673,0.103214,0.302949,0.222515,0.435463,0.516355,0.108571
Liberia,2019,0.322468,0.335628,0.309592,0.078769,0.531501,0.344767,0.404172,0.530374,0.097143
Libya,2023,0.592325,0.600125,0.584898,0.69081,0.651475,0.483729,0.646675,0.259346,0.388571
Libya,2021,0.481741,0.507509,0.456735,0.668176,0.546247,0.532982,0.496741,0.247664,0.340952
Libya,2020,0.498246,0.510638,0.486122,0.472612,0.464477,0.382586,0.492829,0.306075,0.331429
Libya,2019,0.514545,0.521068,0.508163,0.462653,0.715818,0.541777,0.462842,0.334112,0.327619
Lithuania,2023,0.788735,0.789737,0.787551,0.799457,0.88874,0.525945,0.569752,0.102804,0.220952
Lithuania,2022,0.777388,0.779933,0.774898,0.81847,0.926944,0.379947,0.509778,0.13785,0.169524
Lithuania,2021,0.711987,0.714435,0.709388,0.816659,0.72118,0.579595,0.521512,0.123832,0.146667
Lithuania,2020,0.672581,0.674593,0.670816,0.611136,0.628016,0.538259,0.495437,0.130841,0.139048
Lithuania,2019,0.664328,0.665832,0.663061,0.540516,0.874665,0.699208,0.422425,0.126168,0.154286
Luxembourg,2023,0.851455,0.855861,0.847143,0.969217,0.822386,0.622691,0.919166,0.341121,0.822857
Luxembourg,2022,0.873324,0.887151,0.859796,0.995926,0.823727,0.48285,0.800522,0.348131,0.79619
Luxembourg,2021,0.909635,0.915937,0.903469,1,0.688338,0.694811,0.787484,0.280374,0.739048
Luxembourg,2020,0.89313,0.894034,0.892245,0.792666,0.586461,0.668426,0.707953,0.38785,0.672381
Luxembourg,2019,0.875387,0.873592,0.876939,0.69579,0.844504,0.867194,0.670143,0.457944,0.699048
Macedonia,2019,0.446668,0.4466,0.446531,0.423268,0.707105,0.706245,0.409387,0.434579,0.047619
Madagascar,2023,0.254384,0.260534,0.248367,0.284292,0.465818,0.292876,0.200782,0.401869,0.234286
Madagascar,2022,0.211265,0.227159,0.195714,0.286102,0.436327,0.156552,0.118644,0.413551,0.255238
Madagascar,2021,0.277285,0.296204,0.258776,0.303305,0.346515,0.332454,0.138201,0.334112,0.293333
Madagascar,2020,0.250258,0.258448,0.242449,0.120416,0.25134,0.299912,0.14472,0.432243,0.165714
Madagascar,2019,0.241593,0.243638,0.239388,0.11091,0.466488,0.440633,0.126467,0.446262,0.144762
Malawi,2023,0.087889,0.094076,0.081837,0.279312,0.189008,0.306948,0.619296,0.315421,0.259048
Malawi,2022,0.103157,0.117021,0.089796,0.288366,0.235255,0.166227,0.51369,0.324766,0.245714
Malawi,2021,0.155766,0.173342,0.138776,0.293345,0.101206,0.341249,0.496741,0.327103,0.299048
Malawi,2020,0.124819,0.139967,0.11,0.051154,0.02681,0.262093,0.505867,0.497664,0.255238
Malawi,2019,0.112028,0.118064,0.106122,0.080127,0.269437,0.39226,0.509778,0.497664,0.251429
Malaysia,2023,0.614813,0.619107,0.610612,0.745134,0.680295,0.474934,0.955671,0.528037,0.226667
Malaysia,2022,0.622447,0.637672,0.607755,0.753735,0.688338,0.33861,0.734029,0.518692,0.232381
Malaysia,2021,0.560347,0.570505,0.550612,0.764599,0.542895,0.545295,0.72751,0.497664,0.24
Malaysia,2020,0.492882,0.494368,0.491633,0.569941,0.448391,0.516271,0.688396,0.630841,0.121905
Malaysia,2019,0.492882,0.494368,0.491633,0.528746,0.701072,0.693931,0.653194,0.642523,0.118095
Maldives,2020,0.454508,0.464956,0.444286,0.504753,0.594504,0.613017,0.624511,0.476636,0.139048
Maldives,2019,0.454508,0.464956,0.444286,0.424627,0.853887,0.80387,0.589309,0.523364,0.137143
Mali,2023,0.255209,0.258031,0.252449,0.338162,0.375335,0.234828,0.638853,0.280374,0.171429
Mali,2022,0.248195,0.25219,0.244082,0.345405,0.341153,0.093228,0.449804,0.28271,0.112381
Mali,2021,0.306169,0.3131,0.299388,0.358533,0.237936,0.273527,0.33116,0.299065,0.08
Mali,2020,0.356509,0.370046,0.343469,0.175192,0.309651,0.096746,0.375489,0.383178,0.137143
Mali,2019,0.357747,0.363997,0.351633,0.159348,0.566354,0.206684,0.367666,0.397196,0.118095
Malta,2023,0.691355,0.692532,0.69,0.827071,0.882038,0.621812,0.822686,0.584112,0.238095
Malta,2022,0.681865,0.683771,0.68,0.833409,0.898123,0.481091,0.749674,0.46729,0.272381
Malta,2021,0.712193,0.714435,0.71,0.832051,0.697721,0.693931,0.760104,0.406542,0.31619
Malta,2020,0.744172,0.74635,0.742041,0.638751,0.621314,0.656992,0.740548,0.642523,0.348571
Malta,2019,0.779451,0.781602,0.777347,0.567225,0.881367,0.854881,0.70013,0.796729,0.340952
Mauritania,2023,0.311533,0.326033,0.297347,0.488004,0.386729,0.351803,0.322034,0.310748,0.377143
Mauritania,2022,0.356715,0.396537,0.317755,0.49751,0.426273,0.2146,0.292047,0.303738,0.371429
Mauritania,2021,0.238911,0.259908,0.218367,0.497963,0.493968,0.395778,0.271186,0.205607,0.262857
Mauritania,2020,0.254178,0.261786,0.246939,0.301494,0.41622,0.240106,0.159061,0.278037,0.253333
Mauritania,2019,0.284712,0.2864,0.283061,0.244455,0.660188,0.373791,0.11734,0.301402,0.232381
Mauritius,2023,0.582009,0.58761,0.576735,0.710729,0.824397,0.430959,0.710561,0.287383,0.224762
Mauritius,2022,0.599752,0.605549,0.594082,0.71933,0.840483,0.295515,0.623207,0.28271,0.209524
Mauritius,2021,0.634619,0.641218,0.628163,0.720235,0.662198,0.49956,0.642764,0.306075,0.20381
Mauritius,2020,0.63008,0.637255,0.623061,0.533273,0.581769,0.504837,0.644068,0.357477,0.182857
Mauritius,2019,0.640809,0.647267,0.63449,0.486193,0.849866,0.671064,0.645372,0.436916,0.16
Mexico,2023,0.759851,0.765749,0.754082,0.688547,0.745979,0.478452,0.816167,0.200935,0.241905
Mexico,2022,0.688054,0.694827,0.681224,0.701675,0.697721,0.342128,0.698827,0.200935,0.219048
Mexico,2021,0.646379,0.652482,0.640204,0.70258,0.508043,0.547933,0.684485,0.214953,0.219048
Mexico,2020,0.685372,0.690446,0.680204,0.509733,0.470509,0.557608,0.637549,0.214953,0.169524
Mexico,2019,0.715907,0.719441,0.712449,0.463558,0.735925,0.73175,0.597132,0.193925,0.158095
Mongolia,2023,0.557252,0.557572,0.557143,0.612494,0.926944,0.351803,0.528031,0.553738,0.104762
Mongolia,2022,0.586961,0.588235,0.585714,0.624264,0.91555,0.2146,0.428944,0.558411,0.110476
Mongolia,2021,0.570662,0.570505,0.570612,0.630602,0.716488,0.41073,0.393742,0.577103,0.112381
Mongolia,2020,0.553332,0.552774,0.554082,0.437302,0.628016,0.388742,0.392438,0.614486,0.100952
Mongolia,2019,0.507737,0.505841,0.509592,0.409688,0.892091,0.541777,0.338983,0.616822,0.089524
Montenegro,2023,0.559521,0.564247,0.554898,0.711182,0.797587,0.516271,0.698827,0.257009,0.251429
Montenegro,2022,0.562616,0.59053,0.535306,0.69579,0.842493,0.372911,0.608866,0.397196,0.11619
Montenegro,2021,0.526511,0.536295,0.516939,0.712087,0.599866,0.579595,0.474576,0.315421,0.146667
Montenegro,2020,0.533526,0.537338,0.529592,0.522861,0.511394,0.560246,0.392438,0.38785,0.154286
Montenegro,2019,0.526305,0.52816,0.52449,0.45722,0.762735,0.737907,0.269883,0.348131,0.186667
Morocco,2023,0.371364,0.375887,0.366735,0.549117,0.229893,0.435356,0.697523,0.098131,0.15619
Morocco,2022,0.393646,0.39904,0.388367,0.559529,0.272788,0.296394,0.578879,0.030374,0.161905
Morocco,2021,0.426037,0.431998,0.42,0.546854,0.093834,0.496922,0.516297,0.046729,0.194286
Morocco,2020,0.39674,0.401752,0.391837,0.358533,0.060992,0.490765,0.496741,0.079439,0.167619
Morocco,2019,0.433258,0.436796,0.429796,0.343594,0.346515,0.655233,0.461538,0.093458,0.146667
Mozambique,2023,0.458222,0.478932,0.438163,0.253508,0.506032,0.137203,0.82399,0.369159,0.373333
Mozambique,2022,0.404168,0.431998,0.376939,0.258035,0.507373,0,0.6897,0.376168,0.365714
Mozambique,2021,0.423561,0.451189,0.396531,0.261657,0.356568,0.167986,0.647979,0.432243,0.380952
Mozambique,2020,0.371157,0.393617,0.349388,0.082843,0.339142,0.172383,0.667536,0.53271,0.310476
Mozambique,2019,0.336084,0.348144,0.324082,0.081032,0.55429,0.28496,0.606258,0.514019,0.310476
Myanmar,2023,0.28038,0.290154,0.27102,0.442734,0.576408,0.383465,0.461538,0.936916,0.331429
Myanmar,2022,0.284093,0.296829,0.271837,0.46718,0.668231,0.236588,0.474576,0.934579,0.369524
Namibia,2023,0.378997,0.385482,0.372449,0.57311,0.726542,0.270009,0.487614,0.161215,0.11619
Namibia,2022,0.337528,0.345432,0.329796,0.583522,0.668901,0.127529,0.374185,0.161215,0.135238
Namibia,2021,0.302043,0.309345,0.295102,0.58488,0.502011,0.311346,0.375489,0.156542,0.135238
Namibia,2020,0.325769,0.331665,0.32,0.399276,0.451072,0.230431,0.410691,0.212617,0.112381
Namibia,2019,0.32515,0.329787,0.320816,0.380263,0.74933,0.35796,0.45502,0.17757,0.102857
Nepal,2023,0.446255,0.454735,0.438163,0.436849,0.577748,0.389622,0.726206,0.488318,0.219048
Nepal,2022,0.487931,0.5,0.476327,0.443187,0.602547,0.247142,0.614081,0.502336,0.198095
Nepal,2021,0.491438,0.498957,0.483878,0.44545,0.439678,0.438874,0.551499,0.553738,0.247619
Nepal,2020,0.469156,0.478932,0.459592,0.234948,0.384718,0.436236,0.511082,0.670561,0.257143
Nepal,2019,0.441923,0.446391,0.437551,0.200996,0.652145,0.588391,0.501956,0.703271,0.24381
Netherlands,2023,0.892098,0.891322,0.893061,0.86057,0.894102,0.620932,0.820078,0.577103,0.708571
Netherlands,2022,0.909429,0.907384,0.911429,0.879131,0.911528,0.479332,0.750978,0.586449,0.750476
Netherlands,2021,0.911904,0.909679,0.914082,0.880489,0.72252,0.692172,0.723598,0.633178,0.798095
Netherlands,2020,0.922014,0.919483,0.92449,0.679493,0.637399,0.662269,0.718383,0.705607,0.731429
Netherlands,2019,0.918919,0.916354,0.921224,0.606157,0.895442,0.858399,0.675359,0.785047,0.702857
'New Zealand',2023,0.832267,0.833333,0.831429,0.819375,0.937668,0.591909,0.847458,0.528037,0.914286
'New Zealand',2022,0.851661,0.852733,0.850612,0.833861,0.949062,0.451187,0.750978,0.537383,0.897143
'New Zealand',2021,0.867547,0.869629,0.865306,0.838388,0.741957,0.66139,0.761408,0.57243,0.92
'New Zealand',2020,0.883433,0.885482,0.881224,0.633771,0.647453,0.690413,0.741851,0.64486,0.847619
'New Zealand',2019,0.888178,0.890071,0.886122,0.562245,0.910858,0.886544,0.718383,0.761682,0.878095
Nicaragua,2023,0.678564,0.693158,0.664286,0.496605,0.760724,0.476693,0.908735,0.310748,0.478095
Nicaragua,2022,0.673406,0.687943,0.65898,0.502037,0.780161,0.33861,0.735332,0.345794,0.415238
Nicaragua,2021,0.654013,0.667918,0.640204,0.500226,0.603887,0.542656,0.67927,0.392523,0.40381
Nicaragua,2020,0.614194,0.630788,0.597959,0.313717,0.520107,0.531223,0.595828,0.469626,0.335238
Nicaragua,2019,0.648236,0.657489,0.639184,0.28067,0.766086,0.706245,0.604954,0.497664,0.331429
Niger,2023,0.322055,0.334168,0.310408,0.259393,0.367962,0.257696,0.676662,0.338785,0.28
Niger,2022,0.310708,0.334168,0.287959,0.253961,0.335121,0.120493,0.578879,0.359813,0.266667
Niger,2021,0.414277,0.445766,0.383673,0.258035,0.289544,0.286719,0.619296,0.385514,0.27619
Niger,2020,0.428925,0.451189,0.407143,0.073336,0.183646,0.146878,0.547588,0.46729,0.299048
Niger,2019,0.39509,0.406967,0.383265,0.048891,0.386059,0.262973,0.441982,0.485981,0.262857
Nigeria,2023,0.389107,0.397997,0.380408,0.471707,0.634718,0.225154,0.612777,0.469626,0.03619
Nigeria,2022,0.409738,0.422612,0.396939,0.482119,0.589142,0.080915,0.458931,0.411215,0.024762
Nigeria,2021,0.32123,0.321443,0.32102,0.488456,0.404826,0.263852,0.453716,0.408879,0.072381
Nigeria,2020,0.363936,0.365248,0.362857,0.300136,0.33311,0.044855,0.439374,0.495327,0.074286
Nigeria,2019,0.356715,0.357947,0.35551,0.29244,0.575737,0.147757,0.441982,0.516355,0.091429
'North Cyprus',2021,0.510006,0.521277,0.49898,0.821639,0.509383,0.720317,0.556714,0.303738,0.405714
'North Cyprus',2020,0.524242,0.526909,0.521429,0.623359,0.454424,0.704485,0.530639,0.457944,0.380952
'North Cyprus',2019,0.524242,0.526909,0.521429,0.549117,0.707105,0.902375,0.498044,0.464953,0.380952
'North Macedonia',2023,0.489787,0.491865,0.487755,0.667723,0.770107,0.50044,0.63103,0.453271,0.028571
'North Macedonia',2022,0.466061,0.469545,0.462449,0.678135,0.699062,0.358839,0.546284,0.483645,0.038095
'North Macedonia',2021,0.454714,0.457447,0.452041,0.681304,0.492627,0.560246,0.511082,0.502336,0.059048
'North Macedonia',2020,0.434496,0.436379,0.432857,0.483477,0.431635,0.470536,0.461538,0.495327,0.041905
Norway,2023,0.888591,0.892574,0.884694,0.883658,0.930965,0.619173,0.963494,0.523364,0.921905
Norway,2022,0.891273,0.895286,0.887551,0.902671,0.933646,0.478452,0.85528,0.495327,0.881905
Norway,2021,0.901589,0.903212,0.9,0.904029,0.744638,0.691293,0.82399,0.507009,0.902857
Norway,2020,0.907159,0.907801,0.906735,0.698506,0.656836,0.687775,0.791395,0.581776,0.813333
Norway,2019,0.926965,0.927409,0.926531,0.644636,0.91622,0.886544,0.74837,0.672897,0.826667
Pakistan,2023,0.342893,0.348144,0.337755,0.483929,0.316354,0.282322,0.581486,0.336449,0.140952
Pakistan,2022,0.321849,0.333125,0.31102,0.489362,0.354558,0.138962,0.541069,0.329439,0.194286
Pakistan,2021,0.313802,0.317897,0.309592,0.474876,0.191019,0.328936,0.458931,0.422897,0.213333
Pakistan,2020,0.400041,0.40801,0.392245,0.288366,0.197721,0.283201,0.419817,0.588785,0.184762
Pakistan,2019,0.556633,0.558615,0.554898,0.279312,0.49933,0.413369,0.402868,0.535047,0.234286
Panama,2023,0.693831,0.704839,0.683061,0.770484,0.847185,0.556728,0.813559,0.147196,0.081905
Panama,2022,0.674644,0.691281,0.658163,0.775917,0.853887,0.417766,0.696219,0.151869,0.068571
Panama,2021,0.683722,0.699625,0.668163,0.776369,0.656166,0.623571,0.646675,0.114486,0.097143
Panama,2020,0.657107,0.670213,0.644082,0.587596,0.568365,0.586631,0.65189,0.184579,0.100952
Panama,2019,0.682897,0.690864,0.675102,0.497057,0.836461,0.773087,0.63103,0.226636,0.102857
Paraguay,2023,0.615226,0.620567,0.609796,0.632866,0.857909,0.48285,0.902216,0.306075,0.12381
Paraguay,2022,0.565917,0.571756,0.560204,0.646446,0.870643,0.344767,0.758801,0.345794,0.118095
Paraguay,2021,0.532907,0.537964,0.527959,0.637845,0.671582,0.548813,0.694915,0.399533,0.112381
Paraguay,2020,0.54838,0.567793,0.529184,0.444998,0.564343,0.48285,0.659713,0.481308,0.070476
Paraguay,2019,0.556427,0.559866,0.553061,0.406519,0.831099,0.647318,0.640156,0.476636,0.12381
Peru,2023,0.587167,0.591573,0.582857,0.620643,0.705094,0.582234,0.676662,0.182243,0.055238
Peru,2022,0.522179,0.527743,0.516735,0.629244,0.686997,0.438874,0.590613,0.170561,0.051429
Peru,2021,0.528987,0.535878,0.522245,0.632413,0.493968,0.646438,0.585398,0.21028,0.070476
Peru,2020,0.586961,0.600334,0.573878,0.446356,0.47252,0.547933,0.573664,0.203271,0.059048
Peru,2019,0.57809,0.585524,0.570816,0.416025,0.723861,0.724714,0.543677,0.214953,0.051429
Philippines,2023,0.629874,0.637463,0.622245,0.557718,0.682306,0.387863,0.95176,0.231308,0.259048
Philippines,2022,0.52156,0.535044,0.508367,0.560435,0.656836,0.251539,0.805737,0.242991,0.268571
Philippines,2021,0.600165,0.604297,0.595918,0.574015,0.525469,0.452067,0.758801,0.25,0.270476
Philippines,2020,0.595214,0.599082,0.591429,0.386148,0.469169,0.37467,0.723598,0.292056,0.24
Philippines,2019,0.621209,0.624531,0.617959,0.350837,0.74866,0.529464,0.685789,0.301402,0.247619
Poland,2023,0.711162,0.709846,0.712245,0.786781,0.863941,0.562005,0.657106,0.189252,0.333333
Poland,2022,0.673613,0.674385,0.672857,0.799909,0.902145,0.419525,0.541069,0.280374,0.264762
Poland,2021,0.645348,0.645599,0.644898,0.795835,0.701072,0.626209,0.556714,0.28972,0.266667
Poland,2020,0.654219,0.653942,0.65449,0.592576,0.572386,0.587511,0.602347,0.186916,0.247619
Poland,2019,0.658345,0.656237,0.660612,0.529199,0.792225,0.763412,0.602347,0.147196,0.306667
Portugal,2023,0.626161,0.630788,0.621429,0.782254,0.831099,0.614776,0.861799,0.109813,0.066667
Portugal,2022,0.613369,0.61869,0.608163,0.795835,0.823056,0.472296,0.778357,0.07243,0.070476
Portugal,2021,0.623272,0.628285,0.618571,0.796741,0.636729,0.683377,0.728814,0.037383,0.074286
Portugal,2020,0.605323,0.610555,0.600204,0.598914,0.543566,0.668426,0.684485,0.067757,0.062857
Portugal,2019,0.601609,0.605966,0.597347,0.529199,0.812332,0.861038,0.644068,0.123832,0.053333
'Republic of Korea',2023,0.631937,0.633709,0.630204,0.821639,0.703753,0.677221,0.598435,0.294393,0.300952
'Republic of Korea',2022,0.609862,0.611181,0.608571,0.838841,0.710456,0.530343,0.456323,0.261682,0.310476
'Republic of Korea',2021,0.606561,0.607217,0.605918,0.837936,0.508043,0.739666,0.414602,0.259346,0.335238
'Republic of Korea',2020,0.587993,0.587818,0.588367,0.635129,0.422252,0.704485,0.335072,0.313084,0.257143
'Republic of Korea',2019,0.593563,0.594285,0.593061,0.563603,0.674263,0.899736,0.212516,0.397196,0.180952
'Republic of Moldova',2023,0.582009,0.588235,0.575918,0.626981,0.770107,0.476693,0.780965,0.179907,0.08381
'Republic of Moldova',2022,0.582628,0.586567,0.57898,0.645088,0.786863,0.329815,0.670143,0.21729,0.038095
'Republic of Moldova',2021,0.590468,0.59199,0.58898,0.641467,0.589812,0.525066,0.606258,0.238318,0.053333
'Republic of Moldova',2020,0.571694,0.572799,0.570816,0.445903,0.509383,0.476693,0.573664,0.320093,0.024762
'Republic of Moldova',2019,0.539096,0.538173,0.539796,0.320507,0.743298,0.627089,0.383312,0.406542,0.026667
Romania,2023,0.721271,0.726325,0.716327,0.769126,0.742627,0.512753,0.809648,0.095794,0.011429
Romania,2022,0.74149,0.746767,0.736327,0.781349,0.772118,0.372032,0.697523,0.102804,0
Romania,2021,0.718383,0.722778,0.714082,0.77818,0.588472,0.576077,0.663625,0.091121,0.011429
Romania,2020,0.648855,0.655611,0.642245,0.577184,0.47185,0.523307,0.610169,0.10514,0.001905
Romania,2019,0.645554,0.648102,0.643061,0.507017,0.714477,0.69657,0.57236,0.158879,0.001905
'Russian Federation',2023,0.575614,0.573425,0.577959,0.743323,0.819705,0.467018,0.59322,0.32243,0.230476
'Russian Federation',2022,0.550031,0.547351,0.552653,0.760525,0.841153,0.3219,0.460235,0.280374,0.173333
'Russian Federation',2021,0.508356,0.503755,0.512653,0.762789,0.648123,0.515391,0.397653,0.273364,0.152381
'Russian Federation',2020,0.512069,0.507092,0.516939,0.561793,0.579088,0.449428,0.408083,0.268692,0.114286
'Russian Federation',2019,0.526305,0.524406,0.528163,0.510186,0.838472,0.598065,0.395046,0.231308,0.087619
Rwanda,2020,0.086652,0.091364,0.082041,0.16478,0.049598,0.35796,0.692308,0.530374,0.939048
Rwanda,2019,0.065401,0.063621,0.067347,0.155274,0.264745,0.503078,0.662321,0.551402,0.925714
'Saudi Arabia',2023,0.742521,0.750313,0.734694,0.833861,0.826408,0.449428,0.900913,0.266355,0.358095
'Saudi Arabia',2022,0.715494,0.72403,0.706939,0.842463,0.83244,0.308707,0.764016,0.21729,0.32381
'Saudi Arabia',2021,0.727873,0.735711,0.720204,0.846537,0.646113,0.507476,0.723598,0.182243,0.342857
'Saudi Arabia',2020,0.72189,0.728828,0.715102,0.649615,0.560322,0.502199,0.661017,0.21028,0.310476
'Saudi Arabia',2019,0.703734,0.71068,0.697143,0.603893,0.792225,0.668426,0.589309,0.203271,0.310476
Senegal,2023,0.407262,0.414268,0.400204,0.419647,0.41756,0.344767,0.666232,0.35514,0.131429
Senegal,2022,0.383743,0.390697,0.376939,0.42689,0.401475,0.203166,0.551499,0.331776,0.114286
Senegal,2021,0.423148,0.429912,0.416531,0.422363,0.269437,0.39314,0.518905,0.334112,0.154286
Senegal,2020,0.440891,0.449729,0.432245,0.234495,0.288204,0.313984,0.371578,0.369159,0.167619
Senegal,2019,0.409738,0.411765,0.407551,0.228158,0.55429,0.455585,0.333768,0.383178,0.15619
Serbia,2023,0.704766,0.711723,0.697959,0.696243,0.846515,0.514512,0.739244,0.46729,0.192381
Serbia,2022,0.64968,0.665207,0.634286,0.70258,0.814343,0.372911,0.67927,0.574766,0.154286
Serbia,2021,0.656695,0.664164,0.649388,0.701675,0.642091,0.578716,0.586701,0.511682,0.167619
Serbia,2020,0.636064,0.640592,0.631429,0.498416,0.533512,0.557608,0.503259,0.441589,0.125714
Serbia,2019,0.57417,0.577388,0.571224,0.447261,0.803619,0.728232,0.389831,0.350467,0.112381
'Sierra Leone',2023,0.051578,0.0534,0.049796,0.296062,0.293566,0.222515,0.48631,0.422897,0.100952
'Sierra Leone',2022,0.029503,0.039424,0.019592,0.303305,0.276139,0.080915,0.35854,0.450935,0.097143
'Sierra Leone',2021,0.119455,0.129746,0.109388,0.310548,0.193029,0.240106,0.3794,0.471963,0.104762
'Sierra Leone',2020,0.176191,0.185857,0.166939,0.126301,0.16689,0.087951,0.40678,0.567757,0.089524
'Sierra Leone',2019,0.192078,0.195244,0.189184,0.109099,0.41555,0.17942,0.372881,0.602804,0.091429
Slovakia,2023,0.672994,0.67209,0.673878,0.772295,0.946381,0.561126,0.612777,0.224299,0.110476
Slovakia,2022,0.716732,0.723404,0.710204,0.783612,0.949062,0.415128,0.518905,0.299065,0.041905
Slovakia,2021,0.70064,0.701919,0.699184,0.785876,0.739946,0.621812,0.499348,0.275701,0.047619
Slovakia,2020,0.688261,0.688569,0.687959,0.590312,0.628686,0.574318,0.485007,0.25,0.034286
Slovakia,2019,0.677945,0.677305,0.678367,0.540969,0.868633,0.75022,0.42764,0.273364,0.020952
Slovenia,2023,0.773262,0.778682,0.767959,0.808511,0.920912,0.611258,0.90352,0.366822,0.249524
Slovenia,2022,0.754075,0.759282,0.74898,0.821639,0.94571,0.467898,0.79661,0.336449,0.215238
Slovenia,2021,0.749948,0.752607,0.747347,0.819375,0.75134,0.676341,0.767927,0.275701,0.219048
Slovenia,2020,0.715081,0.716729,0.713469,0.615663,0.646783,0.635004,0.774446,0.285047,0.161905
Slovenia,2019,0.694863,0.696496,0.693265,0.547306,0.896113,0.82058,0.718383,0.341121,0.146667
'South Africa',2023,0.500722,0.508761,0.492857,0.628791,0.831769,0.283201,0.574967,0.182243,0.064762
'South Africa',2022,0.470394,0.481227,0.459592,0.641467,0.871314,0.131047,0.479791,0.21028,0.03619
'South Africa',2021,0.453683,0.45995,0.447551,0.645088,0.643432,0.317502,0.451108,0.207944,0.087619
'South Africa',2020,0.40458,0.409679,0.399796,0.437755,0.514075,0.233069,0.457627,0.336449,0.097143
'South Africa',2019,0.375284,0.380058,0.370612,0.40833,0.758043,0.35796,0.441982,0.294393,0.114286
Spain,2023,0.706829,0.707551,0.705918,0.799457,0.900134,0.641161,0.681877,0.278037,0.337143
Spain,2022,0.709924,0.711097,0.70898,0.813943,0.913539,0.498681,0.569752,0.235981,0.299048
Spain,2021,0.718176,0.71965,0.716735,0.81847,0.725871,0.710642,0.533246,0.235981,0.28381
Spain,2020,0.721271,0.72257,0.72,0.622454,0.622654,0.726473,0.477184,0.315421,0.23619
Spain,2019,0.702703,0.703796,0.701633,0.557266,0.866622,0.924362,0.430248,0.385514,0.209524
'Sri Lanka',2023,0.186301,0.189403,0.183265,0.616116,0.704424,0.515391,0.634941,0.336449,0.059048
'Sri Lanka',2022,0.298535,0.311431,0.285714,0.64373,0.734584,0.37467,0.577575,0.280374,0.16381
'Sri Lanka',2021,0.28203,0.287234,0.276939,0.640561,0.540214,0.580475,0.564537,0.350467,0.150476
'Sri Lanka',2020,0.274397,0.28035,0.268571,0.448167,0.463807,0.521548,0.603651,0.558411,0.093333
'Sri Lanka',2019,0.274809,0.275553,0.274082,0.406519,0.715147,0.69657,0.564537,0.591121,0.093333
'State of Palestine',2021,0.306994,0.324364,0.289796,0.519692,0.55563,0.458223,0.312907,0.170561,0.150476
'State of Palestine',2020,0.314009,0.321026,0.306939,0.29244,0.463137,0.381706,0.305085,0.191589,0.142857
'State of Palestine',2019,0.321436,0.323738,0.31898,0.266184,0.715147,0.540018,0.264668,0.214953,0.137143
Swaziland,2020,0.270889,0.279099,0.262857,0.384337,0.378686,0.065084,0.295958,0.156542,0.28
Swaziland,2019,0.270889,0.279099,0.262857,0.37483,0.628016,0.189974,0.265971,0.156542,0.28
Sweden,2023,0.897256,0.899458,0.895306,0.850158,0.920241,0.636763,0.967405,0.516355,0.998095
Sweden,2022,0.907778,0.909053,0.906531,0.869624,0.926273,0.494283,0.857888,0.525701,0.990476
Sweden,2021,0.905509,0.906133,0.905102,0.869172,0.72118,0.706245,0.818774,0.509346,0.975238
Sweden,2020,0.901176,0.901752,0.900612,0.669081,0.626005,0.671064,0.767927,0.570093,0.853333
Sweden,2019,0.899113,0.900083,0.898367,0.598461,0.874665,0.867194,0.722295,0.63785,0.841905
Switzerland,2023,0.838663,0.842094,0.835306,0.891806,0.869303,0.656992,0.864407,0.404206,0.948571
Switzerland,2022,0.875799,0.879015,0.872653,0.915346,0.894772,0.511873,0.758801,0.352804,0.904762
Switzerland,2021,0.931917,0.933667,0.93,0.917157,0.735925,0.722955,0.757497,0.343458,0.878095
Switzerland,2020,0.944089,0.945557,0.942857,0.708918,0.637399,0.717678,0.726206,0.476636,0.786667
Switzerland,2019,0.94182,0.942637,0.94102,0.629697,0.900804,0.915567,0.694915,0.628505,0.777143
'Taiwan Province of China',2023,0.723747,0.727368,0.720408,0.833861,0.816354,0.57168,0.720991,0.158879,0.384762
'Taiwan Province of China',2022,0.730349,0.733625,0.727347,0.855591,0.83378,0.432718,0.607562,0.156542,0.339048
'Taiwan Province of China',2021,0.725603,0.727159,0.724286,0.85876,0.648123,0.644679,0.581486,0.175234,0.32
'Taiwan Province of China',2020,0.740458,0.7403,0.740816,0.669986,0.572386,0.584872,0.51369,0.331776,0.264762
'Taiwan Province of China',2019,0.713844,0.713809,0.714082,0.600724,0.824397,0.772208,0.460235,0.352804,0.251429
Tajikistan,2022,0.481741,0.488527,0.474898,0.440018,0.75067,0.255937,0.655802,0.242991,0.55619
Tajikistan,2021,0.491438,0.491865,0.491224,0.437302,0.587802,0.455585,0.6206,0.275701,0.579048
Tajikistan,2020,0.5098,0.505215,0.514286,0.229968,0.514075,0.437995,0.589309,0.35514,0.470476
Tajikistan,2019,0.528368,0.523363,0.533061,0.215029,0.730563,0.598945,0.554107,0.425234,0.422857
Tanzania,2023,0.162162,0.168335,0.155918,0.371209,0.387399,0.334213,0.799218,0.446262,0.489524
Tanzania,2022,0.144213,0.152274,0.136122,0.378452,0.441689,0.188215,0.666232,0.546729,0.512381
Tanzania,2021,0.145863,0.153734,0.138367,0.383884,0.314343,0.373791,0.628422,0.579439,0.514286
Tanzania,2020,0.129565,0.136003,0.123469,0.196016,0.276139,0.263852,0.590613,0.71729,0.44
Tanzania,2019,0.099237,0.102211,0.096327,0.206881,0.49933,0.389622,0.538462,0.635514,0.388571
Thailand,2023,0.61502,0.622445,0.607755,0.671797,0.817024,0.545295,0.860495,0.661215,0.045714
Thailand,2022,0.58758,0.59637,0.57898,0.685831,0.815013,0.405453,0.688396,0.679907,0.024762
Thailand,2021,0.597483,0.601585,0.593469,0.694885,0.648794,0.613017,0.67927,0.75,0.049524
Thailand,2020,0.616876,0.618899,0.614898,0.501132,0.55563,0.524186,0.671447,0.876168,0.053333
Thailand,2019,0.619765,0.619942,0.619388,0.455862,0.817694,0.698329,0.66884,0.880841,0.060952
Togo,2023,0.251496,0.254485,0.248571,0.343142,0.306971,0.281442,0.46545,0.296729,0.297143
Togo,2022,0.23561,0.245932,0.225714,0.348574,0.344504,0.141601,0.353325,0.348131,0.259048
Togo,2021,0.230452,0.242386,0.21898,0.349027,0.130027,0.316623,0.255541,0.406542,0.251429
Togo,2020,0.22942,0.239466,0.219592,0.114984,0.074397,0.17854,0.25163,0.488318,0.20381
Togo,2019,0.245925,0.250313,0.241837,0.121322,0.281501,0.301671,0.271186,0.469626,0.219048
'Trinidad and Tobago',2019,0.659583,0.689612,0.630204,0.528746,0.857239,0.579595,0.595828,0.464953,0.028571
Tunisia,2023,0.294409,0.290989,0.297551,0.591218,0.55429,0.509235,0.205997,0.056075,0.034286
Tunisia,2022,0.309882,0.311014,0.308776,0.60344,0.571716,0.371152,0.212516,0.051402,0.030476
Tunisia,2021,0.313802,0.316854,0.310816,0.611136,0.313673,0.576957,0.286832,0.067757,0.055238
Tunisia,2020,0.330307,0.333542,0.327347,0.416025,0.259383,0.518909,0.3103,0.133178,0.08381
Tunisia,2019,0.28822,0.28786,0.288776,0.396107,0.49866,0.686895,0.182529,0.130841,0.08381
'T rkiye',2023,0.4085,0.411973,0.405306,0.770484,0.701743,0.554969,0.138201,0.158879,0.219048
'T rkiye',2022,0.334021,0.347726,0.320408,0.775917,0.683646,0.41073,0.03781,0.221963,0.182857
'T rkiye',2021,0.360842,0.361911,0.36,0.772748,0.493968,0.617414,0.147327,0.203271,0.219048
'T rkiye',2020,0.40293,0.402169,0.403469,0.570394,0.456434,0.518909,0.182529,0.226636,0.198095
'T rkiye',2019,0.440891,0.438048,0.443673,0.510186,0.716488,0.686895,0.205997,0.200935,0.230476
Turkmenistan,2021,0.51145,0.51481,0.508367,0.671797,0.798257,0.453826,0.720991,0.733645,0.060952
Turkmenistan,2020,0.427275,0.422612,0.431837,0.473517,0.699732,0.386104,0.659713,0.85514,0.062857
Turkmenistan,2019,0.438209,0.431164,0.445306,0.456768,0.926273,0.538259,0.546284,0.754673,0.064762
Uganda,2023,0.284093,0.290154,0.278163,0.349479,0.685657,0.328056,0.640156,0.415888,0.102857
Uganda,2022,0.296472,0.312265,0.281224,0.355364,0.680965,0.176781,0.428944,0.46028,0.097143
Uganda,2021,0.331752,0.341469,0.322245,0.351743,0.50067,0.367634,0.398957,0.518692,0.125714
Uganda,2020,0.33856,0.348352,0.329184,0.16478,0.395442,0.211082,0.393742,0.623832,0.102857
Uganda,2019,0.296472,0.303713,0.289388,0.14124,0.619303,0.332454,0.398957,0.619159,0.121905
Ukraine,2023,0.387456,0.39174,0.383265,0.611136,0.795576,0.451187,0.697523,0.665888,0.047619
Ukraine,2022,0.428306,0.43325,0.423673,0.614758,0.821716,0.312225,0.59322,0.619159,0.030476
Ukraine,2021,0.430988,0.433876,0.428163,0.638751,0.63874,0.512753,0.491525,0.439252,0.032381
Ukraine,2020,0.387869,0.389445,0.386327,0.443187,0.5563,0.454705,0.418514,0.422897,0.019048
Ukraine,2019,0.323086,0.322904,0.323061,0.353101,0.799598,0.614776,0.290743,0.418224,0.019048
'United Arab Emirates',2023,0.771199,0.77451,0.767959,0.897691,0.69437,0.495163,0.937419,0.488318,0.491429
'United Arab Emirates',2022,0.737776,0.739675,0.735918,0.912177,0.733914,0.352682,0.846154,0.439252,0.470476
'United Arab Emirates',2021,0.738808,0.740509,0.737143,0.904482,0.571046,0.556728,0.790091,0.476636,0.47619
'United Arab Emirates',2020,0.735713,0.735711,0.73551,0.703938,0.490617,0.522427,0.74837,0.551402,0.424762
'United Arab Emirates',2019,0.783165,0.784522,0.781837,0.647804,0.752681,0.693052,0.726206,0.656542,0.419048
'United Kingdom',2023,0.7745,0.776596,0.772449,0.824808,0.802949,0.591029,0.804433,0.623832,0.668571
'United Kingdom',2022,0.784196,0.785774,0.782449,0.840652,0.829759,0.449428,0.691004,0.635514,0.647619
'United Kingdom',2021,0.814524,0.815186,0.813673,0.845179,0.680295,0.659631,0.653194,0.675234,0.626667
'United Kingdom',2020,0.839488,0.840217,0.838776,0.644183,0.626005,0.665787,0.63103,0.794393,0.582857
'United Kingdom',2019,0.860326,0.860868,0.859592,0.576279,0.891421,0.858399,0.559322,0.871495,0.615238
'United States',2023,0.769548,0.773467,0.76551,0.877773,0.847185,0.476693,0.638853,0.521028,0.321905
'United States',2022,0.804415,0.808511,0.800408,0.896333,0.892761,0.343008,0.601043,0.490654,0.327619
'United States',2021,0.821539,0.82499,0.817959,0.897239,0.706434,0.552331,0.623207,0.514019,0.337143
'United States',2020,0.816175,0.821235,0.811429,0.693979,0.604558,0.546174,0.597132,0.588785,0.293333
'United States',2019,0.813906,0.818106,0.809592,0.622001,0.855898,0.73175,0.57236,0.696262,0.289524
Uruguay,2023,0.746028,0.748018,0.744286,0.722499,0.873324,0.520668,0.885267,0.247664,0.419048
Uruguay,2022,0.72189,0.724447,0.719184,0.732005,0.882708,0.382586,0.765319,0.238318,0.48381
Uruguay,2021,0.717764,0.720067,0.71551,0.7311,0.705094,0.591029,0.741851,0.240654,0.504762
Uruguay,2020,0.708892,0.711514,0.706327,0.526935,0.612601,0.5708,0.6897,0.299065,0.424762
Uruguay,2019,0.710749,0.713183,0.708367,0.484835,0.869303,0.753738,0.649283,0.308411,0.367619
Uzbekistan,2023,0.660202,0.666041,0.65449,0.548665,0.848525,0.474055,0.963494,0.586449,0.409524
Uzbekistan,2022,0.62286,0.629954,0.616122,0.555455,0.817024,0.329815,0.839635,0.607477,0.39619
Uzbekistan,2021,0.632969,0.639967,0.626122,0.551833,0.646113,0.527704,0.808344,0.661215,0.457143
Uzbekistan,2020,0.656901,0.667918,0.645918,0.348121,0.602547,0.46438,0.808344,0.913551,0.51619
Uzbekistan,2019,0.6732,0.678765,0.667551,0.315527,0.875335,0.630607,0.778357,0.848131,0.533333
Venezuela,2023,0.53889,0.545474,0.532449,0,0.799598,0.431838,0.550196,0.448598,0.16381
Venezuela,2022,0.45719,0.46433,0.45,0,0.756702,0.299912,0.355932,0.478972,0.16
Venezuela,2021,0.398184,0.404881,0.391837,0,0.563003,0.508355,0.243807,0.525701,0.15619
Venezuela,2020,0.391376,0.397789,0.385102,0.385695,0.515416,0.504837,0.245111,0.182243,0.137143
Venezuela,2019,0.424593,0.431581,0.417755,0.348574,0.818365,0.674582,0.229465,0.203271,0.121905
'Viet Nam',2023,0.628843,0.631623,0.626122,0.602535,0.763405,0.474055,0.973924,0.219626,0.304762
'Viet Nam',2022,0.571075,0.574677,0.567755,0.610684,0.726542,0.335092,0.840939,0.313084,0.232381
'Viet Nam',2021,0.51372,0.513141,0.514286,0.566772,0.538874,0.537379,0.79661,0.334112,0.2
'Viet Nam',2020,0.498453,0.496037,0.500816,0.369851,0.49933,0.541777,0.760104,0.28972,0.173333
'Viet Nam',2019,0.486486,0.481852,0.491224,0.325034,0.754021,0.720317,0.723598,0.317757,0.171429
Yemen,2023,0.116773,0.125991,0.107755,0.303757,0.772788,0.257696,0.346806,0.186916,0.215238
Yemen,2021,0.247988,0.265749,0.230612,0.312811,0.613271,0.337731,0.305085,0.21028,0.186667
Yemen,2020,0.136786,0.142678,0.130816,0.148936,0.47118,0.239226,0.22425,0.214953,0.169524
Yemen,2019,0.109759,0.109303,0.110408,0.177909,0.703083,0.364996,0.19296,0.221963,0.165714
Zambia,2023,0.104601,0.10972,0.099592,0.406971,0.456434,0.23219,0.822686,0.392523,0.207619
Zambia,2022,0.203631,0.220484,0.187143,0.413762,0.510724,0.083553,0.585398,0.441589,0.152381
Zambia,2021,0.15783,0.165207,0.150612,0.421005,0.300938,0.269129,0.559322,0.474299,0.158095
Zambia,2020,0.222406,0.229245,0.215918,0.239022,0.284182,0.203166,0.509778,0.530374,0.140952
Zambia,2019,0.157623,0.1602,0.155102,0.243096,0.514745,0.320141,0.514993,0.586449,0.165714
Zimbabwe,2023,0.071384,0.072382,0.070612,0.338615,0.483914,0.204046,0.509778,0.224299,0.249524
Zimbabwe,2022,0.043119,0.044431,0.041633,0.343142,0.504692,0.060686,0.34811,0.261682,0.222857
Zimbabwe,2021,0,0,0,0.428701,0.376676,0.237467,0.303781,0.247664,0.2
Zimbabwe,2020,0.030947,0.031081,0.030612,0.206881,0.349196,0.21372,0.342894,0.366822,0.142857
Zimbabwe,2019,0.062719,0.063413,0.062041,0.192847,0.616622,0.329815,0.366362,0.352804,0.154286
Norway,2017,0.937074,0.935336,0.938776,0.731553,0.942359,0.700967,0.702738,0.845794,0.601905
Denmark,2017,0.93398,0.932833,0.935102,0.670892,0.953753,0.697449,0.691004,0.829439,0.76381
Switzerland,2017,0.928203,0.928661,0.927755,0.708465,0.930965,0.754617,0.683181,0.679907,0.699048
Finland,2017,0.923045,0.921569,0.92449,0.653689,0.946381,0.711522,0.680574,0.57243,0.729524
Sweden,2017,0.884877,0.883187,0.886531,0.676324,0.904826,0.730871,0.674055,0.899533,0.731429
Israel,2017,0.870229,0.869837,0.870612,0.622454,0.836461,0.737027,0.404172,0.771028,0.161905
'Costa Rica',2017,0.842583,0.846475,0.838776,0.50249,0.863271,0.668426,0.63103,0.502336,0.190476
Austria,2017,0.827522,0.826241,0.828776,0.673155,0.892761,0.716799,0.615385,0.738318,0.420952
'United States',2017,0.82484,0.827076,0.822653,0.699864,0.865952,0.680739,0.53455,0.918224,0.259048
Ireland,2017,0.821539,0.820401,0.822653,0.695337,0.958445,0.712401,0.621904,1,0.567619
Germany,2017,0.816175,0.812474,0.819796,0.673608,0.901475,0.702726,0.608866,0.785047,0.527619
Belgium,2017,0.803796,0.802253,0.805306,0.662743,0.894102,0.719437,0.578879,0.542056,0.478095
Luxembourg,2017,0.798019,0.795578,0.800408,0.788592,0.891421,0.743184,0.653194,0.661215,0.607619
Chile,2017,0.754487,0.756988,0.752041,0.567225,0.774799,0.720317,0.366362,0.764019,0.15619
'United Arab Emirates',2017,0.753662,0.753442,0.753878,0.73608,0.762735,0.639402,0.667536,0.843458,0.617143
Brazil,2017,0.75098,0.754068,0.747959,0.501132,0.873324,0.542656,0.444589,0.378505,0.211429
'Czech Republic',2017,0.745616,0.745515,0.745714,0.612494,0.875335,0.663149,0.514993,0.205607,0.070476
Argentina,2017,0.743553,0.746767,0.740408,0.536442,0.879357,0.611258,0.520209,0.254673,0.114286
Mexico,2017,0.73922,0.742804,0.735714,0.521956,0.725871,0.62445,0.413299,0.28271,0.253333
Singapore,2017,0.737982,0.735711,0.740204,0.765957,0.821716,0.834653,0.591917,0.808411,0.88381
Uruguay,2017,0.713637,0.716729,0.710612,0.551381,0.86059,0.632366,0.629726,0.408879,0.339048
Guatemala,2017,0.713637,0.72111,0.706327,0.394749,0.756032,0.474934,0.567145,0.661215,0.146667
Panama,2017,0.713225,0.719024,0.707551,0.558624,0.83445,0.620932,0.591917,0.492991,0.135238
France,2017,0.711162,0.710471,0.711837,0.647804,0.844504,0.742304,0.487614,0.303738,0.329524
'Taiwan Province of China',2017,0.707035,0.706091,0.707959,0.649163,0.842493,0.698329,0.345502,0.602804,0.121905
Spain,2017,0.703115,0.701085,0.705102,0.626528,0.941019,0.781882,0.408083,0.443925,0.135238
Qatar,2017,0.697339,0.721318,0.673878,0.84699,0.768097,0.62445,0.662321,0.771028,0.83619
Colombia,2017,0.693625,0.697121,0.690204,0.484835,0.853887,0.523307,0.496741,0.348131,0.089524
'Saudi Arabia',2017,0.690943,0.695453,0.686531,0.693074,0.77681,0.518909,0.461538,0.345794,0.52
'Trinidad and Tobago',2017,0.654632,0.68252,0.627347,0.616116,0.839142,0.457344,0.551499,0.759346,0.017143
Kuwait,2017,0.641634,0.642887,0.640408,0.739249,0.758713,0.555849,0.521512,0.53271,0.409524
Slovakia,2017,0.64019,0.639758,0.640612,0.599819,0.922922,0.627089,0.260756,0.320093,0.045714
Bahrain,2017,0.63792,0.640175,0.635714,0.673608,0.800938,0.574318,0.574967,0.404206,0.489524
Malaysia,2017,0.637301,0.640384,0.634286,0.584427,0.775469,0.544415,0.398957,0.974299,0.125714
Nicaragua,2017,0.634619,0.641844,0.627551,0.333635,0.77681,0.574318,0.458931,0.705607,0.249524
Ecuador,2017,0.621622,0.624948,0.618367,0.453146,0.776139,0.603342,0.468057,0.350467,0.266667
'El Salvador',2017,0.62059,0.625574,0.615714,0.411951,0.706434,0.524186,0.43807,0.182243,0.171429
Poland,2017,0.614401,0.614101,0.614694,0.58488,0.883378,0.614776,0.552803,0.369159,0.112381
Uzbekistan,2017,0.613988,0.616604,0.611429,0.355817,0.952413,0.437995,0.732725,0.971963,0.470476
Italy,2017,0.612544,0.611806,0.613265,0.631507,0.882708,0.75022,0.208605,0.404206,0.053333
Russia,2017,0.612338,0.609095,0.61551,0.580353,0.898794,0.481091,0.362451,0.121495,0.062857
Belize,2017,0.610893,0.64393,0.578571,0.411046,0.63874,0.395778,0.589309,0.560748,0.184762
Japan,2017,0.603466,0.60096,0.605918,0.641467,0.876676,0.80299,0.53455,0.28271,0.312381
Lithuania,2017,0.599752,0.599291,0.600204,0.595292,0.902145,0.55321,0.179922,0.023364,0.022857
Algeria,2017,0.593563,0.598248,0.58898,0.494341,0.682306,0.543536,0.178618,0.161215,0.278095
Latvia,2017,0.589024,0.586149,0.591837,0.570847,0.855898,0.562005,0.29987,0.357477,0.140952
'South Korea',2017,0.586548,0.586775,0.586327,0.634676,0.670241,0.791557,0.211213,0.483645,0.12
Moldova,2017,0.586548,0.583646,0.589388,0.330014,0.753351,0.51803,0.189048,0.488318,0.019048
Romania,2017,0.583866,0.586149,0.581633,0.551381,0.684987,0.602463,0.470665,0.313084,0.007619
Bolivia,2017,0.583454,0.582812,0.584082,0.377546,0.737265,0.416887,0.603651,0.528037,0.114286
Turkmenistan,2017,0.583247,0.578849,0.587551,0.511996,0.914879,0.385224,0.419817,0.584112,0.493333
Kazakhstan,2017,0.582628,0.582812,0.582449,0.581711,0.841823,0.532982,0.444589,0.471963,0.226667
'North Cyprus',2017,0.580772,0.581352,0.580204,0.609778,0.709115,0.734389,0.488918,0.623832,0.295238
Slovenia,2017,0.570043,0.569879,0.570204,0.607062,0.88807,0.69569,0.621904,0.567757,0.085714
Peru,2017,0.561172,0.563621,0.558776,0.468538,0.731233,0.55409,0.461538,0.296729,0.089524
Mauritius,2017,0.543429,0.546516,0.540408,0.538253,0.725201,0.561126,0.514993,0.843458,0.08
Cyprus,2017,0.541778,0.543388,0.540204,0.613852,0.672252,0.743184,0.337679,0.633178,0.078095
Estonia,2017,0.539715,0.537756,0.541633,0.598008,0.904155,0.611258,0.499348,0.231308,0.348571
Belarus,2017,0.53105,0.528995,0.533061,0.523766,0.882708,0.561126,0.259452,0.36215,0.297143
Libya,2017,0.521972,0.535461,0.508776,0.498868,0.824397,0.457344,0.482399,0.35514,0.177143
Turkey,2017,0.516815,0.518356,0.515306,0.542327,0.810992,0.561126,0.267275,0.109813,0.190476
Paraguay,2017,0.51537,0.514602,0.516122,0.422363,0.924263,0.509235,0.492829,0.523364,0.173333
'Hong Kong S.A.R. of China',2017,0.511038,0.50897,0.513061,0.70258,0.760724,0.829376,0.514993,0.873832,0.56
Philippines,2017,0.502373,0.507927,0.496939,0.388411,0.754692,0.411609,0.637549,0.453271,0.188571
Serbia,2017,0.495152,0.496871,0.493469,0.483929,0.757373,0.572559,0.147327,0.514019,0.078095
Jordan,2017,0.482979,0.487693,0.478367,0.448619,0.744638,0.532102,0.419817,0.401869,0.228571
Hungary,2017,0.480503,0.478306,0.482653,0.582164,0.814343,0.605101,0.104302,0.182243,0.070476
Jamaica,2017,0.477821,0.515436,0.44102,0.419194,0.831099,0.563764,0.492829,0.546729,0.104762
Croatia,2017,0.474108,0.476012,0.472245,0.553644,0.563003,0.616535,0.208605,0.579439,0.081905
Kosovo,2017,0.471219,0.47038,0.472041,0.430512,0.676944,0.475814,0.21382,0.747664,0.108571
China,2017,0.469981,0.460784,0.47898,0.489362,0.692359,0.651715,0.491525,0.067757,0.04381
Pakistan,2017,0.469156,0.469337,0.46898,0.329108,0.365282,0.353562,0.181226,0.735981,0.23619
Venezuela,2017,0.465236,0.471423,0.459184,0.510638,0.873324,0.542656,0.075619,0.151869,0.121905
Montenegro,2017,0.462554,0.465373,0.459796,0.507469,0.743968,0.586631,0.129074,0.462617,0.167619
Morocco,2017,0.462142,0.460576,0.463673,0.397465,0.433646,0.525945,0.40678,0.074766,0.167619
Azerbaijan,2017,0.461935,0.456612,0.467143,0.522408,0.686327,0.475814,0.393742,0.10514,0.344762
'Dominican Republic',2017,0.46111,0.467042,0.455306,0.488456,0.853887,0.505717,0.595828,0.436916,0.217143
Greece,2017,0.460491,0.462036,0.45898,0.583522,0.744638,0.712401,0,0,0.081905
Lebanon,2017,0.460078,0.460784,0.459388,0.486646,0.671582,0.646438,0.25163,0.616822,0.072381
Portugal,2017,0.453889,0.453692,0.454082,0.595292,0.830429,0.700088,0.52412,0.221963,0.030476
'Bosnia and Herzegovina',2017,0.451207,0.451815,0.450612,0.444545,0.630697,0.620053,0.140808,0.768692,0
Honduras,2017,0.451001,0.457238,0.444898,0.330919,0.680965,0.512753,0.328553,0.551402,0.139048
Macedonia,2017,0.449763,0.45098,0.448571,0.482119,0.723861,0.567282,0.29987,0.593458,0.114286
Somalia,2017,0.444811,0.444723,0.444898,0.010412,0.397453,0.100264,0.659713,0.682243,0.537143
Vietnam,2017,0.428925,0.424906,0.432857,0.357175,0.770107,0.573439,0.619296,0.549065,0.167619
Nigeria,2017,0.428925,0.438048,0.42,0.354912,0.729223,0.050132,0.389831,0.53972,0.049524
Tajikistan,2017,0.422117,0.417397,0.426735,0.237664,0.766086,0.465259,0.490222,0.581776,0.278095
Nepal,2017,0.405818,0.408219,0.403469,0.217293,0.704424,0.443272,0.448501,0.920561,0.139048
Mongolia,2017,0.404374,0.398832,0.409796,0.464916,0.914879,0.490765,0.388527,0.78972,0.062857
'South Africa',2017,0.378378,0.379433,0.377347,0.477592,0.842493,0.164468,0.499348,0.324766,0.139048
Tunisia,2017,0.373427,0.370046,0.376735,0.455862,0.495979,0.539138,0.252934,0.116822,0.165714
'Palestinian Territories',2017,0.367237,0.369629,0.364898,0.324129,0.689008,0.497801,0.207301,0.266355,0.169524
Egypt,2017,0.358985,0.357739,0.360204,0.448167,0.58244,0.457344,0.242503,0.301402,0.217143
Bulgaria,2017,0.354652,0.353358,0.355918,0.525577,0.875335,0.622691,0.25163,0.264019,0.020952
'Sierra Leone',2017,0.353621,0.363162,0.344286,0.166591,0.573727,0.005277,0.290743,0.684579,0.135238
Cameroon,2017,0.350732,0.351898,0.349592,0.255319,0.548257,0.116974,0.435463,0.551402,0.097143
Iran,2017,0.350113,0.352107,0.348163,0.523766,0.391421,0.562005,0.199478,0.904206,0.093333
Albania,2017,0.34021,0.342511,0.337959,0.450883,0.453083,0.64292,0.371578,0.469626,0.07619
Bangladesh,2017,0.332783,0.329579,0.335918,0.265731,0.406836,0.468777,0.498044,0.401869,0.23619
Namibia,2017,0.325769,0.346266,0.305714,0.436397,0.650134,0.298153,0.552803,0.179907,0.177143
Mozambique,2017,0.320817,0.347101,0.295102,0.10593,0.497989,0.094107,0.501956,0.752336,0.340952
Senegal,2017,0.317722,0.311222,0.324082,0.21684,0.705094,0.359719,0.367666,0.42757,0.219048
Zambia,2017,0.31339,0.319983,0.306939,0.287913,0.586461,0.226913,0.477184,0.584112,0.148571
Iraq,2017,0.309882,0.315603,0.304286,0.499321,0.570375,0.440633,0.25163,0.46729,0.20381
Gabon,2017,0.30328,0.301836,0.304694,0.542327,0.689008,0.313984,0.281617,0.102804,0.144762
Ethiopia,2017,0.302249,0.298915,0.30551,0.153463,0.493968,0.310466,0.408083,0.731308,0.314286
Armenia,2017,0.284919,0.283062,0.286735,0.407877,0.589142,0.561126,0.132986,0.193925,0.051429
India,2017,0.272333,0.263246,0.281224,0.358533,0.419571,0.400176,0.487614,0.542056,0.175238
Mauritania,2017,0.267588,0.264289,0.270816,0.293345,0.766756,0.25066,0,0.471963,0.260952
'Congo (Brazzaville)',2017,0.267382,0.271172,0.263673,0.366229,0.47185,0.255057,0.441982,0.28271,0.152381
Georgia,2017,0.26635,0.263872,0.268776,0.430512,0.296917,0.57168,0.277705,0.126168,0.48
'Congo (Kinshasa)',2017,0.265112,0.260325,0.269796,0.041648,0.737936,0.167986,0.182529,0.574766,0.114286
Mali,2017,0.246544,0.241969,0.25102,0.215482,0.772788,0.148637,0.275098,0.42757,0.2
'Ivory Coast',2017,0.244481,0.243012,0.245918,0.272974,0.520777,0.043096,0.458931,0.469626,0.247619
Cambodia,2017,0.242005,0.243846,0.240204,0.272522,0.588472,0.378188,0.70013,0.901869,0.129524
Ghana,2017,0.232102,0.232165,0.232041,0.301947,0.5,0.260334,0.426336,0.600467,0.047619
Ukraine,2017,0.227151,0.224239,0.23,0.405161,0.849196,0.506596,0.035202,0.630841,0.04381
Uganda,2017,0.224056,0.226533,0.221633,0.172476,0.671582,0.191733,0.452412,0.761682,0.108571
'Burkina Faso',2017,0.213947,0.211514,0.216327,0.158443,0.613271,0.189974,0.297262,0.586449,0.228571
Niger,2017,0.213122,0.209011,0.217143,0.073336,0.579759,0.236588,0.349413,0.535047,0.264762
Malawi,2017,0.201155,0.20171,0.200612,0.105478,0.258043,0.277045,0.483703,0.670561,0.139048
Chad,2017,0.194141,0.19295,0.195306,0.19828,0.553619,0.03606,0.08605,0.504673,0.102857
Zimbabwe,2017,0.181556,0.181268,0.181837,0.170213,0.64008,0.173263,0.312907,0.441589,0.180952
Lesotho,2017,0.167733,0.194827,0.141224,0.235853,0.711796,0,0.384615,0.366822,0.226667
Afghanistan,2017,0.164844,0.159366,0.170204,0.18153,0.30429,0.159191,0.013038,0.728972,0.11619
Botswana,2017,0.159067,0.159366,0.158776,0.507922,0.733244,0.300792,0.533246,0.231308,0.188571
Benin,2017,0.136579,0.132666,0.140408,0.195111,0.205764,0.184697,0.430248,0.485981,0.11619
Madagascar,2017,0.133897,0.125991,0.141633,0.138524,0.526139,0.329815,0.121252,0.488318,0.127619
Yemen,2017,0.123375,0.12161,0.125102,0.267995,0.540885,0.272647,0.199478,0.242991,0.108571
'South Sudan',2017,0.122963,0.128494,0.117551,0.179719,0.317024,0.14336,0.066493,0.668224,0.222857
Liberia,2017,0.110996,0.113475,0.108571,0.053871,0.49866,0.202287,0.308996,0.623832,0.074286
Guinea,2017,0.105632,0.098874,0.112245,0.11091,0.44437,0.170624,0.329857,0.619159,0.211429
Togo,2017,0.103157,0.10096,0.105306,0.138072,0.203753,0.217238,0.370274,0.46028,0.182857
Rwanda,2017,0.098205,0.090321,0.105918,0.167044,0.548257,0.286719,0.633638,0.591121,0.866667
Tanzania,2017,0.073035,0.073217,0.072857,0.231326,0.612601,0.32102,0.383312,0.827103,0.125714
