@relation 'IHME_clean-weka.filters.unsupervised.attribute.ReplaceMissingValues-weka.filters.unsupervised.attribute.Remove-R3,5,6,7,8,9,10,11-weka.filters.unsupervised.attribute.Remove-R3,5-weka.filters.unsupervised.attribute.Normalize-S1.0-T0.0'

@attribute measure_id numeric
@attribute measure_name {Deaths,'DALYs (Disability-Adjusted Life Years)'}
@attribute location_name {Croatia,Jamaica,Panama,'Lao Peoples Democratic Republic',Guam,Chile,Cameroon,Tonga,Germany,Colombia,Morocco,Mozambique,Fiji,Mauritania,Czechia,Afghanistan,'Saint Lucia',Ghana,Romania,Vanuatu,'Equatorial Guinea',Singapore,Malaysia,'Venezuela (Bolivarian Republic of)','Cabo Verde',Niger,'Northern Mariana Islands',Indonesia,Luxembourg,Hungary,Kiribati,'Costa Rica','Bolivia (Plurinational State of)','Saint Vincent and the Grenadines',Georgia,Bangladesh,Türkiye,Uruguay,Serbia,'United States Virgin Islands',Rwanda,Pakistan,Palestine,Oman,'Puerto Rico',Maldives,Bulgaria,France,Brazil,'North Macedonia',Malta,Slovakia,Monaco,Suriname,'South Sudan','El Salvador','Russian Federation',Uzbekistan,'United Republic of Tanzania',Algeria,Kazakhstan,Bhutan,Chad,'Marshall Islands',Tokelau,Netherlands,'Sri Lanka',Turkmenistan,Ecuador,Belarus,'Saint Kitts and Nevis',Palau,Austria,Australia,India,'American Samoa',Montenegro,Ukraine,Israel,Sweden,'United Arab Emirates',Gabon,'Trinidad and Tobago',Iraq,Kuwait,Nauru,Eritrea,Haiti,Mauritius,Kyrgyzstan,Portugal,'South Africa',Paraguay,Argentina,Cuba,Uganda,Myanmar,Estonia,Bahrain,Nicaragua,Tuvalu,Thailand,Guatemala,Slovenia,'Côte dIvoire',Switzerland,Yemen,Nigeria,Japan,Armenia,Jordan,Poland,China,'Burkina Faso',Timor-Leste,Qatar,Canada,Eswatini,'San Marino',Seychelles,Peru,Egypt,Lebanon,Zambia,Spain,Belgium,Bermuda,Italy,'United Kingdom',Nepal,'Solomon Islands',Norway,'New Zealand',Niue,Latvia,'United States of America',Philippines,'Republic of Moldova','Brunei Darussalam',Sudan,Guinea,Albania,Dominica,Libya,'Republic of Korea',Gambia,Cyprus,Mongolia,Ethiopia,Azerbaijan,Comoros,'Democratic Republic of the Congo',Botswana,Cambodia,'Sao Tome and Principe',Burundi,'Democratic Peoples Republic of Korea',Somalia,Angola,'Bosnia and Herzegovina','Saudi Arabia',Honduras,Zimbabwe,Djibouti,'Iran (Islamic Republic of)',Tajikistan,Madagascar,'Antigua and Barbuda','Dominican Republic',Kenya,'Micronesia (Federated States of)',Lithuania,'Taiwan (Province of China)',Greece,Bahamas,'Central African Republic',Belize,Grenada,Lesotho,Mexico,Senegal,Congo,'Papua New Guinea',Andorra,Denmark,Benin,'Syrian Arab Republic',Guinea-Bissau,'Cook Islands',Iceland,Togo,Namibia,Barbados,Finland,Malawi,Samoa,Liberia,Greenland,'Viet Nam','Sierra Leone',Guyana,Tunisia,Ireland,Mali}
@attribute metric_name {Number,Percent,Rate}
@attribute val numeric
@attribute year numeric
@attribute upper numeric
@attribute lower numeric

@data
0,Deaths,Croatia,Number,0.945746,2017,0.896166,0.942931
0,Deaths,Croatia,Percent,0.000017,2017,0.000016,0.000017
0,Deaths,Croatia,Rate,0.022712,2017,0.021521,0.022645
0,Deaths,Jamaica,Number,0.272584,2017,0.262061,0.269023
0,Deaths,Jamaica,Percent,0.000013,2017,0.000012,0.000013
0,Deaths,Jamaica,Rate,0.009659,2017,0.009286,0.009533
0,Deaths,Panama,Number,0.243218,2017,0.232387,0.23978
0,Deaths,Panama,Percent,0.000012,2017,0.000011,0.000012
0,Deaths,Panama,Rate,0.006398,2017,0.006113,0.006308
0,Deaths,'Lao Peoples Democratic Republic',Number,0.2975,2017,0.312764,0.271185
0,Deaths,'Lao Peoples Democratic Republic',Percent,0.000004,2017,0.000005,0.000004
0,Deaths,'Lao Peoples Democratic Republic',Rate,0.004254,2017,0.004472,0.003878
0,Deaths,Guam,Number,0.012697,2017,0.01229,0.01254
0,Deaths,Guam,Percent,0.000011,2017,0.000011,0.000011
0,Deaths,Guam,Rate,0.007842,2017,0.00759,0.007745
0,Deaths,Chile,Percent,0.000017,2017,0.000016,0.000017
0,Deaths,Chile,Rate,0.010555,2017,0.010022,0.010392
0,Deaths,Cameroon,Number,0.825163,2017,0.849707,0.754925
0,Deaths,Cameroon,Percent,0.000002,2017,0.000002,0.000002
0,Deaths,Cameroon,Rate,0.002922,2017,0.003009,0.002674
0,Deaths,Tonga,Number,0.007277,2017,0.007657,0.006551
0,Deaths,Tonga,Percent,0.00001,2017,0.00001,0.000009
0,Deaths,Tonga,Rate,0.006994,2017,0.007359,0.006296
0,Deaths,Germany,Percent,0.000017,2017,0.000016,0.000017
0,Deaths,Germany,Rate,0.020722,2017,0.019868,0.019837
0,Deaths,Colombia,Percent,0.000012,2017,0.000011,0.000012
0,Deaths,Colombia,Rate,0.006483,2017,0.00614,0.006428
0,Deaths,Morocco,Percent,0.000005,2018,0.000006,0.000004
0,Deaths,Morocco,Rate,0.004251,2018,0.004721,0.003643
0,Deaths,Mozambique,Number,0.542139,2017,0.557237,0.499607
0,Deaths,Mozambique,Percent,0.000001,2017,0.000001,0.000001
0,Deaths,Mozambique,Rate,0.00192,2017,0.001973,0.001769
0,Deaths,Fiji,Number,0.054066,2017,0.05453,0.051367
0,Deaths,Fiji,Percent,0.000006,2017,0.000006,0.000006
0,Deaths,Fiji,Rate,0.005923,2017,0.005974,0.005628
0,Deaths,Mauritania,Number,0.143293,2017,0.155558,0.12265
0,Deaths,Mauritania,Percent,0.000005,2017,0.000005,0.000004
0,Deaths,Mauritania,Rate,0.003554,2017,0.003858,0.003042
0,Deaths,Czechia,Percent,0.000017,2017,0.000016,0.000017
0,Deaths,Czechia,Rate,0.018768,2017,0.017716,0.018711
0,Deaths,Afghanistan,Number,0.587991,2019,0.650165,0.472776
0,Deaths,Afghanistan,Percent,0.000002,2019,0.000002,0.000002
0,Deaths,Afghanistan,Rate,0.001758,2019,0.001943,0.001413
0,Deaths,'Saint Lucia',Number,0.015331,2017,0.014914,0.015059
0,Deaths,'Saint Lucia',Percent,0.000012,2017,0.000012,0.000012
0,Deaths,'Saint Lucia',Rate,0.008739,2017,0.008501,0.008583
0,Deaths,Ghana,Number,0.844739,2018,0.867914,0.779886
0,Deaths,Ghana,Percent,0.000003,2018,0.000003,0.000003
0,Deaths,Ghana,Rate,0.002778,2018,0.002855,0.002565
0,Deaths,Romania,Percent,0.000013,2018,0.000012,0.000013
0,Deaths,Romania,Rate,0.018085,2018,0.017037,0.018267
0,Deaths,Vanuatu,Number,0.00837,2017,0.00881,0.007552
0,Deaths,Vanuatu,Percent,0.000004,2017,0.000004,0.000004
0,Deaths,Vanuatu,Rate,0.00288,2017,0.003031,0.002598
0,Deaths,'Equatorial Guinea',Number,0.048163,2018,0.05194,0.040329
0,Deaths,'Equatorial Guinea',Percent,0.000004,2018,0.000004,0.000003
0,Deaths,'Equatorial Guinea',Rate,0.003429,2018,0.003698,0.002871
0,Deaths,Singapore,Number,0.415121,2018,0.39979,0.401266
0,Deaths,Singapore,Percent,0.000019,2018,0.000018,0.000018
0,Deaths,Singapore,Rate,0.007362,2018,0.00709,0.007116
0,Deaths,Malaysia,Percent,0.000009,2017,0.000009,0.000009
0,Deaths,Malaysia,Rate,0.005472,2017,0.005323,0.005354
0,Deaths,'Venezuela (Bolivarian Republic of)',Percent,0.00001,2017,0.000009,0.00001
0,Deaths,'Venezuela (Bolivarian Republic of)',Rate,0.006577,2017,0.006201,0.006605
0,Deaths,'Cabo Verde',Number,0.031733,2017,0.032455,0.029568
0,Deaths,'Cabo Verde',Percent,0.00001,2017,0.00001,0.00001
0,Deaths,'Cabo Verde',Rate,0.0062,2017,0.006341,0.005777
0,Deaths,Niger,Number,0.438856,2019,0.492504,0.38364
0,Deaths,Niger,Percent,0.000001,2019,0.000001,0.000001
0,Deaths,Niger,Rate,0.00191,2019,0.002143,0.00167
0,Deaths,'Northern Mariana Islands',Number,0.004439,2018,0.004504,0.004177
0,Deaths,'Northern Mariana Islands',Percent,0.000012,2018,0.000012,0.000012
0,Deaths,'Northern Mariana Islands',Rate,0.009087,2018,0.009219,0.00855
0,Deaths,Indonesia,Percent,0.000007,2020,0.000007,0.000006
0,Deaths,Indonesia,Rate,0.005229,2020,0.005428,0.004846
0,Deaths,Luxembourg,Number,0.081945,2018,0.078987,0.079214
0,Deaths,Luxembourg,Percent,0.000019,2018,0.000018,0.000019
0,Deaths,Luxembourg,Rate,0.013606,2018,0.013115,0.013153
0,Deaths,Hungary,Percent,0.000016,2017,0.000015,0.000016
0,Deaths,Hungary,Rate,0.02284,2017,0.02148,0.022931
0,Deaths,Kiribati,Number,0.003515,2017,0.003851,0.002981
0,Deaths,Kiribati,Percent,0.000004,2017,0.000005,0.000004
0,Deaths,Kiribati,Rate,0.00302,2017,0.003309,0.002562
0,Deaths,'Costa Rica',Number,0.364022,2017,0.347471,0.360221
0,Deaths,'Costa Rica',Percent,0.000015,2017,0.000014,0.000015
0,Deaths,'Costa Rica',Rate,0.007374,2017,0.007038,0.007297
0,Deaths,'Bolivia (Plurinational State of)',Number,0.89219,2018,0.918581,0.838259
0,Deaths,'Bolivia (Plurinational State of)',Percent,0.000011,2018,0.000011,0.000011
0,Deaths,'Bolivia (Plurinational State of)',Rate,0.007823,2018,0.008054,0.00735
0,Deaths,'Saint Vincent and the Grenadines',Number,0.012256,2017,0.01199,0.011973
0,Deaths,'Saint Vincent and the Grenadines',Percent,0.000012,2017,0.000011,0.000012
0,Deaths,'Saint Vincent and the Grenadines',Rate,0.010605,2017,0.010375,0.01036
0,Deaths,Georgia,Number,0.625504,2018,0.597829,0.619538
0,Deaths,Georgia,Percent,0.000012,2018,0.000011,0.000012
0,Deaths,Georgia,Rate,0.016753,2018,0.016011,0.016593
0,Deaths,Bangladesh,Percent,0.000007,2019,0.000007,0.000007
0,Deaths,Bangladesh,Rate,0.004979,2019,0.005233,0.00464
0,Deaths,Türkiye,Percent,0.000013,2018,0.000012,0.000012
0,Deaths,Türkiye,Rate,0.008297,2018,0.008172,0.00773
0,Deaths,Uruguay,Number,0.644318,2017,0.611895,0.640217
0,Deaths,Uruguay,Percent,0.000018,2017,0.000017,0.000018
0,Deaths,Uruguay,Rate,0.018773,2017,0.017828,0.018654
0,Deaths,Serbia,Percent,0.000015,2018,0.000014,0.000014
0,Deaths,Serbia,Rate,0.020147,2018,0.019477,0.019737
0,Deaths,'United States Virgin Islands',Number,0.012219,2017,0.011972,0.011692
0,Deaths,'United States Virgin Islands',Percent,0.000013,2017,0.000013,0.000013
0,Deaths,'United States Virgin Islands',Rate,0.012761,2017,0.012503,0.01221
0,Deaths,Rwanda,Number,0.537943,2017,0.56269,0.493983
0,Deaths,Rwanda,Percent,0.000005,2017,0.000005,0.000005
0,Deaths,Rwanda,Rate,0.004383,2017,0.004584,0.004025
0,Deaths,Pakistan,Percent,0.000006,2018,0.000006,0.000005
0,Deaths,Pakistan,Rate,0.004031,2018,0.004154,0.003816
0,Deaths,Palestine,Number,0.152159,2018,0.147725,0.144784
0,Deaths,Palestine,Percent,0.00001,2018,0.000009,0.000009
0,Deaths,Palestine,Rate,0.003068,2018,0.002978,0.002919
0,Deaths,Oman,Number,0.080502,2017,0.08122,0.075525
0,Deaths,Oman,Percent,0.000006,2017,0.000006,0.000006
0,Deaths,Oman,Rate,0.002026,2017,0.002044,0.001901
0,Deaths,'Puerto Rico',Number,0.397735,2018,0.380726,0.385575
0,Deaths,'Puerto Rico',Percent,0.000013,2018,0.000012,0.000012
0,Deaths,'Puerto Rico',Rate,0.01146,2018,0.010969,0.011109
0,Deaths,Maldives,Number,0.01304,2017,0.012896,0.012389
0,Deaths,Maldives,Percent,0.000007,2017,0.000007,0.000007
0,Deaths,Maldives,Rate,0.002834,2017,0.002803,0.002693
0,Deaths,Bulgaria,Percent,0.000011,2018,0.00001,0.000012
0,Deaths,Bulgaria,Rate,0.018325,2018,0.017307,0.018465
0,Deaths,France,Percent,0.000018,2020,0.000018,0.000018
0,Deaths,France,Rate,0.018613,2020,0.017893,0.01775
0,Deaths,Brazil,Percent,0.000011,2017,0.000011,0.000011
0,Deaths,Brazil,Rate,0.007944,2017,0.007534,0.007792
0,Deaths,'North Macedonia',Number,0.302839,2017,0.292171,0.295522
0,Deaths,'North Macedonia',Percent,0.000014,2017,0.000013,0.000013
0,Deaths,'North Macedonia',Rate,0.015558,2017,0.01501,0.015183
0,Deaths,Malta,Number,0.065911,2018,0.064013,0.063167
0,Deaths,Malta,Percent,0.000017,2018,0.000016,0.000017
0,Deaths,Malta,Rate,0.01332,2018,0.012937,0.012766
0,Deaths,Slovakia,Number,0.96693,2018,0.930738,0.951212
0,Deaths,Slovakia,Percent,0.000017,2018,0.000016,0.000017
0,Deaths,Slovakia,Rate,0.017763,2018,0.017098,0.017474
0,Deaths,Monaco,Number,0.014262,2017,0.015238,0.012656
0,Deaths,Monaco,Percent,0.000027,2017,0.000029,0.000024
0,Deaths,Monaco,Rate,0.037801,2017,0.040386,0.033544
0,Deaths,Suriname,Number,0.041917,2017,0.041304,0.039939
0,Deaths,Suriname,Percent,0.000009,2017,0.000009,0.000009
0,Deaths,Suriname,Rate,0.007277,2017,0.007171,0.006934
0,Deaths,'South Sudan',Number,0.458909,2018,0.481516,0.414052
0,Deaths,'South Sudan',Percent,0.000004,2018,0.000004,0.000003
0,Deaths,'South Sudan',Rate,0.004932,2018,0.005175,0.00445
0,Deaths,'El Salvador',Number,0.417164,2017,0.422798,0.407379
0,Deaths,'El Salvador',Percent,0.000008,2017,0.000008,0.000008
0,Deaths,'El Salvador',Rate,0.006761,2017,0.006852,0.006603
0,Deaths,'Russian Federation',Percent,0.000011,2018,0.00001,0.000011
0,Deaths,'Russian Federation',Rate,0.014172,2018,0.013372,0.01422
0,Deaths,Uzbekistan,Percent,0.000005,2017,0.000005,0.000006
0,Deaths,Uzbekistan,Rate,0.003778,2017,0.003571,0.003831
0,Deaths,'United Republic of Tanzania',Percent,0.000004,2019,0.000005,0.000004
0,Deaths,'United Republic of Tanzania',Rate,0.003337,2019,0.003485,0.003112
0,Deaths,Algeria,Percent,0.000005,2018,0.000006,0.000004
0,Deaths,Algeria,Rate,0.003251,2018,0.003607,0.00276
0,Deaths,Kazakhstan,Percent,0.000008,2018,0.000007,0.000008
0,Deaths,Kazakhstan,Rate,0.006368,2018,0.006101,0.006299
0,Deaths,Bhutan,Number,0.032633,2019,0.034646,0.029615
0,Deaths,Bhutan,Percent,0.000006,2019,0.000006,0.000006
0,Deaths,Bhutan,Rate,0.004311,2019,0.004577,0.003913
0,Deaths,Chad,Number,0.382067,2017,0.419906,0.338792
0,Deaths,Chad,Percent,0.000001,2017,0.000001,0.000001
0,Deaths,Chad,Rate,0.002486,2017,0.002732,0.002204
0,Deaths,'Marshall Islands',Number,0.002825,2017,0.00302,0.002521
0,Deaths,'Marshall Islands',Percent,0.000007,2017,0.000007,0.000006
0,Deaths,'Marshall Islands',Rate,0.005828,2017,0.006231,0.0052
0,Deaths,Tokelau,Number,0.000102,2019,0.000107,0.000094
0,Deaths,Tokelau,Percent,0.000007,2019,0.000007,0.000007
0,Deaths,Tokelau,Rate,0.006516,2019,0.006867,0.006011
0,Deaths,Netherlands,Percent,0.000022,2018,0.000021,0.000021
0,Deaths,Netherlands,Rate,0.020434,2018,0.019716,0.019492
0,Deaths,'Sri Lanka',Percent,0.000008,2018,0.000007,0.000008
0,Deaths,'Sri Lanka',Rate,0.005651,2018,0.005519,0.005447
0,Deaths,Turkmenistan,Number,0.234693,2019,0.229286,0.229023
0,Deaths,Turkmenistan,Percent,0.000006,2019,0.000005,0.000006
0,Deaths,Turkmenistan,Rate,0.004388,2019,0.004286,0.004282
0,Deaths,Ecuador,Number,0.928054,2018,0.878853,0.925028
0,Deaths,Ecuador,Percent,0.000011,2018,0.00001,0.000011
0,Deaths,Ecuador,Rate,0.005575,2018,0.005279,0.005557
0,Deaths,Belarus,Percent,0.00001,2019,0.000009,0.00001
0,Deaths,Belarus,Rate,0.013883,2019,0.013117,0.013938
0,Deaths,'Saint Kitts and Nevis',Number,0.004462,2018,0.004317,0.004382
0,Deaths,'Saint Kitts and Nevis',Percent,0.000011,2018,0.00001,0.000011
0,Deaths,'Saint Kitts and Nevis',Rate,0.009208,2018,0.008908,0.009041
0,Deaths,Germany,Percent,0.000017,2020,0.000016,0.000016
0,Deaths,Germany,Rate,0.02099,2020,0.020156,0.020016
0,Deaths,Palau,Number,0.002322,2018,0.002346,0.002199
0,Deaths,Palau,Percent,0.000012,2018,0.000012,0.000012
0,Deaths,Palau,Rate,0.012884,2018,0.013019,0.012202
0,Deaths,Austria,Percent,0.000017,2019,0.000016,0.000016
0,Deaths,Austria,Rate,0.01688,2019,0.016227,0.016248
0,Deaths,Australia,Percent,0.00002,2018,0.000019,0.000019
0,Deaths,Australia,Rate,0.013506,2018,0.013007,0.012849
0,Deaths,India,Percent,0.000005,2019,0.000005,0.000005
0,Deaths,India,Rate,0.004078,2019,0.004092,0.003975
0,Deaths,'American Samoa',Number,0.003752,2017,0.003817,0.003516
0,Deaths,'American Samoa',Percent,0.00001,2017,0.00001,0.000009
0,Deaths,'American Samoa',Rate,0.007107,2017,0.007231,0.00666
0,Deaths,Montenegro,Number,0.099208,2017,0.098698,0.092284
0,Deaths,Montenegro,Percent,0.000015,2017,0.000015,0.000014
0,Deaths,Montenegro,Rate,0.015516,2017,0.015437,0.014434
0,Deaths,Ukraine,Percent,0.000008,2018,0.000008,0.000008
0,Deaths,Ukraine,Rate,0.012343,2018,0.011681,0.012491
0,Deaths,Israel,Number,0.899303,2019,0.867637,0.850306
0,Deaths,Israel,Percent,0.000019,2019,0.000018,0.000018
0,Deaths,Israel,Rate,0.009601,2019,0.009262,0.009078
0,Deaths,'Lao Peoples Democratic Republic',Number,0.343262,2020,0.361073,0.317363
0,Deaths,'Lao Peoples Democratic Republic',Percent,0.000005,2020,0.000005,0.000005
0,Deaths,'Lao Peoples Democratic Republic',Rate,0.004726,2020,0.004971,0.00437
0,Deaths,Sweden,Percent,0.000018,2019,0.000017,0.000017
0,Deaths,Sweden,Rate,0.016665,2019,0.01611,0.015769
0,Deaths,'United Arab Emirates',Number,0.129083,2018,0.134687,0.122643
0,Deaths,'United Arab Emirates',Percent,0.000011,2018,0.000011,0.000011
0,Deaths,'United Arab Emirates',Rate,0.001323,2018,0.00138,0.001257
0,Deaths,Gabon,Number,0.087844,2018,0.092394,0.079987
0,Deaths,Gabon,Percent,0.000005,2018,0.000006,0.000005
0,Deaths,Gabon,Rate,0.004991,2018,0.00525,0.004545
0,Deaths,'Trinidad and Tobago',Number,0.132218,2017,0.127185,0.131354
0,Deaths,'Trinidad and Tobago',Percent,0.000011,2017,0.00001,0.000011
0,Deaths,'Trinidad and Tobago',Rate,0.009494,2017,0.009133,0.009432
0,Deaths,Iraq,Percent,0.000009,2019,0.000009,0.000008
0,Deaths,Iraq,Rate,0.004812,2019,0.004909,0.004535
0,Deaths,Kuwait,Number,0.081661,2017,0.078164,0.080848
0,Deaths,Kuwait,Percent,0.00001,2017,0.000009,0.00001
0,Deaths,Kuwait,Rate,0.002049,2017,0.001961,0.002029
0,Deaths,Nauru,Number,0.000719,2017,0.000803,0.000631
0,Deaths,Nauru,Percent,0.000006,2017,0.000007,0.000006
0,Deaths,Nauru,Rate,0.006406,2017,0.007156,0.005618
0,Deaths,Eritrea,Number,0.308982,2019,0.318929,0.285379
0,Deaths,Eritrea,Percent,0.000005,2019,0.000005,0.000004
0,Deaths,Eritrea,Rate,0.004797,2019,0.004951,0.00443
0,Deaths,Chile,Percent,0.000014,2020,0.000013,0.000014
0,Deaths,Chile,Rate,0.010257,2020,0.009686,0.010111
0,Deaths,Haiti,Number,0.620976,2020,0.662764,0.563569
0,Deaths,Haiti,Percent,0.000004,2020,0.000005,0.000004
0,Deaths,Haiti,Rate,0.004872,2020,0.005199,0.004421
0,Deaths,Mauritius,Number,0.096896,2020,0.091925,0.097537
0,Deaths,Mauritius,Percent,0.000008,2020,0.000007,0.000008
0,Deaths,Mauritius,Rate,0.007569,2020,0.007181,0.007619
0,Deaths,Kyrgyzstan,Number,0.261428,2018,0.248819,0.261864
0,Deaths,Kyrgyzstan,Percent,0.000007,2018,0.000006,0.000007
0,Deaths,Kyrgyzstan,Rate,0.003928,2018,0.003738,0.003934
0,Deaths,Portugal,Percent,0.000017,2019,0.000017,0.000017
0,Deaths,Portugal,Rate,0.01945,2019,0.018768,0.018539
0,Deaths,'South Africa',Percent,0.000006,2019,0.000006,0.000006
0,Deaths,'South Africa',Rate,0.006626,2019,0.006715,0.006213
0,Deaths,Paraguay,Number,0.417138,2017,0.406139,0.389859
0,Deaths,Paraguay,Percent,0.00001,2017,0.00001,0.00001
0,Deaths,Paraguay,Rate,0.006753,2017,0.006575,0.006311
0,Deaths,Argentina,Percent,0.000012,2020,0.000011,0.000012
0,Deaths,Argentina,Rate,0.010579,2020,0.01,0.010609
0,Deaths,Cuba,Percent,0.000016,2019,0.000015,0.000016
0,Deaths,Cuba,Rate,0.015662,2019,0.014854,0.015622
0,Deaths,Uganda,Percent,0.000005,2019,0.000005,0.000005
0,Deaths,Uganda,Rate,0.004255,2019,0.004376,0.003813
0,Deaths,Myanmar,Percent,0.000004,2017,0.000005,0.000004
0,Deaths,Myanmar,Rate,0.005182,2017,0.005429,0.004695
0,Deaths,Estonia,Number,0.245125,2019,0.233403,0.241256
0,Deaths,Estonia,Percent,0.000015,2019,0.000014,0.000015
0,Deaths,Estonia,Rate,0.01853,2019,0.017644,0.018238
0,Deaths,Bahrain,Number,0.042792,2018,0.04282,0.040231
0,Deaths,Bahrain,Percent,0.00001,2018,0.00001,0.00001
0,Deaths,Bahrain,Rate,0.002882,2018,0.002884,0.00271
0,Deaths,Nicaragua,Number,0.310181,2020,0.311792,0.305966
0,Deaths,Nicaragua,Percent,0.000007,2020,0.000007,0.000007
0,Deaths,Nicaragua,Rate,0.004703,2020,0.004728,0.004639
0,Deaths,Tuvalu,Number,0.000966,2019,0.001032,0.000856
0,Deaths,Tuvalu,Percent,0.000007,2019,0.000007,0.000006
0,Deaths,Tuvalu,Rate,0.008805,2019,0.009406,0.007806
0,Deaths,Thailand,Percent,0.000014,2018,0.000015,0.000014
0,Deaths,Thailand,Rate,0.011285,2018,0.011705,0.010882
0,Deaths,Guatemala,Number,0.659691,2017,0.629823,0.663579
0,Deaths,Guatemala,Percent,0.000007,2017,0.000006,0.000007
0,Deaths,Guatemala,Rate,0.004314,2017,0.004118,0.004339
0,Deaths,Slovenia,Number,0.420091,2018,0.402293,0.406524
0,Deaths,Slovenia,Percent,0.00002,2018,0.000018,0.000019
0,Deaths,Slovenia,Rate,0.020247,2018,0.019389,0.019593
0,Deaths,'Côte dIvoire',Number,0.743779,2017,0.782785,0.674321
0,Deaths,'Côte dIvoire',Percent,0.000002,2017,0.000002,0.000002
0,Deaths,'Côte dIvoire',Rate,0.002798,2017,0.002944,0.002536
0,Deaths,Switzerland,Percent,0.000018,2019,0.000018,0.000017
0,Deaths,Switzerland,Rate,0.015106,2019,0.014638,0.014135
0,Deaths,Yemen,Number,0.674783,2018,0.754674,0.550467
0,Deaths,Yemen,Percent,0.000003,2018,0.000003,0.000002
0,Deaths,Yemen,Rate,0.002128,2018,0.00238,0.001736
0,Deaths,Nigeria,Percent,0.000002,2019,0.000002,0.000002
0,Deaths,Nigeria,Rate,0.002664,2019,0.002873,0.002315
0,Deaths,Japan,Percent,0.000021,2017,0.00002,0.000019
0,Deaths,Japan,Rate,0.022899,2017,0.022751,0.020654
0,Deaths,Armenia,Number,0.369589,2017,0.354114,0.367667
0,Deaths,Armenia,Percent,0.000012,2017,0.000011,0.000013
0,Deaths,Armenia,Rate,0.012044,2017,0.01154,0.011982
0,Deaths,Jordan,Number,0.429214,2019,0.426129,0.409116
0,Deaths,Jordan,Percent,0.000011,2019,0.000011,0.000011
0,Deaths,Jordan,Rate,0.003717,2019,0.00369,0.003543
0,Deaths,Malaysia,Percent,0.00001,2020,0.000009,0.00001
0,Deaths,Malaysia,Rate,0.005597,2020,0.005465,0.005466
0,Deaths,Poland,Percent,0.000019,2017,0.000017,0.000019
0,Deaths,Poland,Rate,0.020136,2017,0.01908,0.01996
0,Deaths,China,Percent,0.000015,2019,0.000014,0.000015
0,Deaths,China,Rate,0.010267,2019,0.010118,0.009947
0,Deaths,'Burkina Faso',Number,0.480359,2020,0.495495,0.440278
0,Deaths,'Burkina Faso',Percent,0.000002,2020,0.000002,0.000002
0,Deaths,'Burkina Faso',Rate,0.002154,2020,0.002221,0.001974
0,Deaths,Timor-Leste,Number,0.045495,2018,0.048303,0.040416
0,Deaths,Timor-Leste,Percent,0.000004,2018,0.000005,0.000004
0,Deaths,Timor-Leste,Rate,0.003483,2018,0.003698,0.003094
0,Deaths,Qatar,Number,0.026502,2017,0.028208,0.025036
0,Deaths,Qatar,Percent,0.000009,2017,0.00001,0.000009
0,Deaths,Qatar,Rate,0.000995,2017,0.001059,0.00094
0,Deaths,Canada,Percent,0.00002,2017,0.000019,0.000019
0,Deaths,Canada,Rate,0.015925,2017,0.015259,0.015368
0,Deaths,Eswatini,Number,0.054321,2019,0.06401,0.043672
0,Deaths,Eswatini,Percent,0.000003,2019,0.000004,0.000003
0,Deaths,Eswatini,Rate,0.004693,2019,0.00553,0.003773
0,Deaths,Jamaica,Number,0.289375,2020,0.281632,0.284457
0,Deaths,Jamaica,Percent,0.000013,2020,0.000012,0.000013
0,Deaths,Jamaica,Rate,0.010208,2020,0.009935,0.010035
0,Deaths,'San Marino',Number,0.004756,2018,0.004893,0.004257
0,Deaths,'San Marino',Percent,0.000019,2018,0.00002,0.000018
0,Deaths,'San Marino',Rate,0.013748,2018,0.014144,0.012306
0,Deaths,Seychelles,Number,0.009277,2018,0.009195,0.008898
0,Deaths,Seychelles,Percent,0.000013,2018,0.000012,0.000012
0,Deaths,Seychelles,Rate,0.009065,2018,0.008985,0.008695
0,Deaths,Peru,Percent,0.000013,2018,0.000012,0.000013
0,Deaths,Peru,Rate,0.006441,2018,0.00629,0.006275
0,Deaths,Egypt,Percent,0.000006,2018,0.000006,0.000006
0,Deaths,Egypt,Rate,0.003821,2018,0.003857,0.003578
0,Deaths,Lebanon,Number,0.356775,2017,0.353898,0.337418
0,Deaths,Lebanon,Percent,0.000014,2017,0.000013,0.000013
0,Deaths,Lebanon,Rate,0.006306,2017,0.006255,0.005964
0,Deaths,Uruguay,Number,0.623222,2020,0.591879,0.612209
0,Deaths,Uruguay,Percent,0.000018,2020,0.000017,0.000018
0,Deaths,Uruguay,Rate,0.018174,2020,0.017259,0.017852
0,Deaths,Vanuatu,Number,0.00919,2020,0.009895,0.008232
0,Deaths,Vanuatu,Percent,0.000004,2020,0.000004,0.000004
0,Deaths,Vanuatu,Rate,0.002964,2020,0.003191,0.002655
0,Deaths,Zambia,Number,0.627346,2019,0.656301,0.575572
0,Deaths,Zambia,Percent,0.000003,2019,0.000003,0.000003
0,Deaths,Zambia,Rate,0.003401,2019,0.003558,0.00312
0,Deaths,Spain,Percent,0.000018,2019,0.000017,0.000017
0,Deaths,Spain,Rate,0.017095,2019,0.016518,0.016109
0,Deaths,Belgium,Percent,0.000018,2019,0.000017,0.000017
0,Deaths,Belgium,Rate,0.018232,2019,0.017658,0.017151
0,Deaths,Bermuda,Number,0.010064,2017,0.009718,0.009566
0,Deaths,Bermuda,Percent,0.000019,2017,0.000018,0.000018
0,Deaths,Bermuda,Rate,0.015474,2017,0.014942,0.014707
0,Deaths,Italy,Percent,0.000018,2019,0.000018,0.000017
0,Deaths,Italy,Rate,0.02066,2019,0.020239,0.019205
0,Deaths,'United Kingdom',Percent,0.00002,2019,0.000019,0.000019
0,Deaths,'United Kingdom',Rate,0.0184,2019,0.01768,0.017549
0,Deaths,Nepal,Number,0.86362,2019,0.892521,0.797537
0,Deaths,Nepal,Percent,0.000004,2019,0.000004,0.000004
0,Deaths,Nepal,Rate,0.002863,2019,0.002959,0.002644
0,Deaths,'Solomon Islands',Number,0.044872,2020,0.047004,0.040812
0,Deaths,'Solomon Islands',Percent,0.000006,2020,0.000006,0.000006
0,Deaths,'Solomon Islands',Rate,0.005744,2020,0.006017,0.005225
0,Deaths,Norway,Number,0.824675,2018,0.796611,0.786358
0,Deaths,Norway,Percent,0.000019,2018,0.000018,0.000018
0,Deaths,Norway,Rate,0.015575,2018,0.015044,0.014851
0,Deaths,'New Zealand',Number,0.688981,2018,0.664559,0.654051
0,Deaths,'New Zealand',Percent,0.000019,2018,0.000018,0.000018
0,Deaths,'New Zealand',Rate,0.014055,2018,0.013557,0.013343
0,Deaths,Mozambique,Number,0.610563,2020,0.64549,0.555035
0,Deaths,Mozambique,Percent,0.000002,2020,0.000002,0.000001
0,Deaths,Mozambique,Rate,0.001987,2020,0.002101,0.001807
0,Deaths,Niue,Number,0.000155,2017,0.000161,0.000142
0,Deaths,Niue,Percent,0.000008,2017,0.000008,0.000007
0,Deaths,Niue,Rate,0.009511,2017,0.00992,0.008757
0,Deaths,Latvia,Number,0.394092,2019,0.372765,0.393155
0,Deaths,Latvia,Percent,0.000013,2019,0.000012,0.000013
0,Deaths,Latvia,Rate,0.019934,2019,0.018855,0.019886
0,Deaths,'United States of America',Percent,0.000015,2017,0.000014,0.000014
0,Deaths,'United States of America',Rate,0.013668,2017,0.013183,0.013178
0,Deaths,Philippines,Percent,0.000006,2017,0.000006,0.000006
0,Deaths,Philippines,Rate,0.00422,2017,0.004104,0.004175
0,Deaths,'Cabo Verde',Number,0.031585,2020,0.032868,0.028828
0,Deaths,'Cabo Verde',Percent,0.000008,2020,0.000008,0.000008
0,Deaths,'Cabo Verde',Rate,0.006264,2020,0.006518,0.005717
0,Deaths,China,Percent,0.000015,2018,0.000014,0.000015
0,Deaths,China,Rate,0.010733,2018,0.010496,0.010303
0,Deaths,Georgia,Number,0.655713,2017,0.628075,0.654167
0,Deaths,Georgia,Percent,0.000012,2017,0.000011,0.000012
0,Deaths,Georgia,Rate,0.017429,2017,0.016694,0.017388
0,Deaths,'Republic of Moldova',Number,0.444919,2017,0.424973,0.44307
0,Deaths,'Republic of Moldova',Percent,0.000009,2017,0.000009,0.00001
0,Deaths,'Republic of Moldova',Rate,0.011879,2017,0.011346,0.01183
0,Deaths,'Brunei Darussalam',Number,0.027522,2018,0.026911,0.026368
0,Deaths,'Brunei Darussalam',Percent,0.000016,2018,0.000015,0.000015
0,Deaths,'Brunei Darussalam',Rate,0.006272,2018,0.006132,0.006009
0,Deaths,Sudan,Percent,0.000005,2019,0.000006,0.000004
0,Deaths,Sudan,Rate,0.003596,2019,0.004082,0.002959
0,Deaths,Guinea,Number,0.377346,2019,0.403861,0.340233
0,Deaths,Guinea,Percent,0.000002,2019,0.000002,0.000002
0,Deaths,Guinea,Rate,0.002956,2019,0.003164,0.002666
0,Deaths,Albania,Number,0.293551,2017,0.297174,0.277096
0,Deaths,Albania,Percent,0.000012,2017,0.000012,0.000011
0,Deaths,Albania,Rate,0.010946,2017,0.011081,0.010332
0,Deaths,Dominica,Number,0.009155,2019,0.00924,0.008639
0,Deaths,Dominica,Percent,0.000014,2019,0.000014,0.000013
0,Deaths,Dominica,Rate,0.013088,2019,0.013209,0.01235
0,Deaths,Libya,Number,0.316005,2017,0.332486,0.27947
0,Deaths,Libya,Percent,0.000008,2017,0.000009,0.000007
0,Deaths,Libya,Rate,0.004556,2017,0.004794,0.00403
0,Deaths,'Republic of Korea',Percent,0.00002,2017,0.00002,0.000019
0,Deaths,'Republic of Korea',Rate,0.011729,2017,0.011683,0.01085
0,Deaths,Gambia,Number,0.03738,2017,0.041736,0.032969
0,Deaths,Gambia,Percent,0.000001,2017,0.000002,0.000001
0,Deaths,Gambia,Rate,0.001713,2017,0.001912,0.00151
0,Deaths,Cyprus,Number,0.171704,2019,0.17252,0.163696
0,Deaths,Cyprus,Percent,0.000016,2019,0.000016,0.000016
0,Deaths,Cyprus,Rate,0.013006,2019,0.013068,0.0124
0,Deaths,Mongolia,Number,0.289878,2018,0.282116,0.282896
0,Deaths,Mongolia,Percent,0.000015,2018,0.000015,0.000015
0,Deaths,Mongolia,Rate,0.009125,2018,0.00888,0.008905
0,Deaths,Ethiopia,Percent,0.000006,2019,0.000006,0.000006
0,Deaths,Ethiopia,Rate,0.005,2019,0.005169,0.004688
0,Deaths,'Bolivia (Plurinational State of)',Number,0.851436,2017,0.878356,0.796853
0,Deaths,'Bolivia (Plurinational State of)',Percent,0.000011,2017,0.000011,0.00001
0,Deaths,'Bolivia (Plurinational State of)',Rate,0.007569,2017,0.007809,0.007084
0,Deaths,Maldives,Number,0.014712,2020,0.014693,0.013843
0,Deaths,Maldives,Percent,0.000007,2020,0.000007,0.000007
0,Deaths,Maldives,Rate,0.002925,2020,0.002921,0.002752
0,Deaths,Azerbaijan,Number,0.631038,2017,0.662828,0.583608
0,Deaths,Azerbaijan,Percent,0.000009,2017,0.000009,0.000008
0,Deaths,Azerbaijan,Rate,0.006234,2017,0.006548,0.005766
0,Deaths,Comoros,Number,0.018364,2018,0.018968,0.016712
0,Deaths,Comoros,Percent,0.000004,2018,0.000004,0.000003
0,Deaths,Comoros,Rate,0.0023,2018,0.002375,0.002093
0,Deaths,'Democratic Republic of the Congo',Percent,0.000003,2017,0.000003,0.000002
0,Deaths,'Democratic Republic of the Congo',Rate,0.00374,2017,0.00416,0.002985
0,Deaths,Cameroon,Percent,0.000003,2020,0.000003,0.000002
0,Deaths,Cameroon,Rate,0.003123,2020,0.003246,0.00281
0,Deaths,Botswana,Number,0.076461,2018,0.083659,0.065401
0,Deaths,Botswana,Percent,0.000004,2018,0.000004,0.000003
0,Deaths,Botswana,Rate,0.003324,2018,0.003637,0.002843
0,Deaths,Cambodia,Number,0.602035,2019,0.634031,0.550806
0,Deaths,Cambodia,Percent,0.000006,2019,0.000006,0.000005
0,Deaths,Cambodia,Rate,0.003686,2019,0.003882,0.003372
0,Deaths,Croatia,Number,0.906214,2020,0.856157,0.907165
0,Deaths,Croatia,Percent,0.000015,2020,0.000014,0.000015
0,Deaths,Croatia,Rate,0.022474,2020,0.021233,0.022498
0,Deaths,'Sao Tome and Principe',Number,0.008502,2019,0.008944,0.007723
0,Deaths,'Sao Tome and Principe',Percent,0.000006,2019,0.000006,0.000006
0,Deaths,'Sao Tome and Principe',Rate,0.004033,2019,0.004243,0.003663
0,Deaths,Burundi,Number,0.38549,2018,0.401652,0.346284
0,Deaths,Burundi,Percent,0.000003,2018,0.000003,0.000003
0,Deaths,Burundi,Rate,0.003228,2018,0.003363,0.002899
0,Deaths,Romania,Percent,0.000013,2017,0.000012,0.000013
0,Deaths,Romania,Rate,0.017995,2017,0.016985,0.018261
0,Deaths,Oman,Number,0.092138,2020,0.093622,0.085191
0,Deaths,Oman,Percent,0.000005,2020,0.000005,0.000005
0,Deaths,Oman,Rate,0.002014,2020,0.002046,0.001862
0,Deaths,'Saint Lucia',Number,0.016644,2020,0.016236,0.016377
0,Deaths,'Saint Lucia',Percent,0.000012,2020,0.000011,0.000012
0,Deaths,'Saint Lucia',Rate,0.009367,2020,0.009137,0.009217
0,Deaths,Panama,Number,0.255572,2020,0.243847,0.255581
0,Deaths,Panama,Percent,0.000009,2020,0.000008,0.000009
0,Deaths,Panama,Rate,0.006405,2020,0.006111,0.006405
0,Deaths,'Democratic Peoples Republic of Korea',Percent,0.00001,2018,0.000011,0.000009
0,Deaths,'Democratic Peoples Republic of Korea',Rate,0.008991,2018,0.009602,0.008017
0,Deaths,Somalia,Number,0.391377,2018,0.425995,0.338316
0,Deaths,Somalia,Percent,0.000001,2018,0.000002,0.000001
0,Deaths,Somalia,Rate,0.002158,2018,0.002349,0.001866
0,Deaths,Angola,Number,0.889238,2018,0.929592,0.806296
0,Deaths,Angola,Percent,0.000003,2018,0.000003,0.000003
0,Deaths,Angola,Rate,0.002893,2018,0.003024,0.002623
0,Deaths,'Democratic Peoples Republic of Korea',Percent,0.00001,2019,0.000011,0.000009
0,Deaths,'Democratic Peoples Republic of Korea',Rate,0.009269,2019,0.009921,0.00826
0,Deaths,'Bosnia and Herzegovina',Number,0.617896,2017,0.60304,0.604367
0,Deaths,'Bosnia and Herzegovina',Percent,0.000015,2017,0.000015,0.000015
0,Deaths,'Bosnia and Herzegovina',Rate,0.017831,2017,0.017402,0.017441
0,Deaths,'Saudi Arabia',Number,0.760962,2017,0.817803,0.710372
0,Deaths,'Saudi Arabia',Percent,0.000007,2017,0.000007,0.000007
0,Deaths,'Saudi Arabia',Rate,0.00237,2017,0.002547,0.002213
0,Deaths,Honduras,Number,0.307321,2019,0.313548,0.282415
0,Deaths,Honduras,Percent,0.000006,2019,0.000006,0.000005
0,Deaths,Honduras,Rate,0.003111,2019,0.003174,0.002859
0,Deaths,Zimbabwe,Number,0.547018,2019,0.588958,0.473284
0,Deaths,Zimbabwe,Percent,0.000004,2019,0.000004,0.000003
0,Deaths,Zimbabwe,Rate,0.003612,2019,0.003889,0.003125
0,Deaths,Djibouti,Number,0.047773,2018,0.050348,0.042578
0,Deaths,Djibouti,Percent,0.000005,2018,0.000005,0.000005
0,Deaths,Djibouti,Rate,0.003957,2018,0.00417,0.003527
0,Deaths,Singapore,Number,0.410571,2017,0.394055,0.399868
0,Deaths,Singapore,Percent,0.000019,2017,0.000018,0.000018
0,Deaths,Singapore,Rate,0.007315,2017,0.00702,0.007124
0,Deaths,'Iran (Islamic Republic of)',Percent,0.000011,2018,0.000011,0.00001
0,Deaths,'Iran (Islamic Republic of)',Rate,0.005189,2018,0.005259,0.004954
0,Deaths,Tokelau,Number,0.000104,2018,0.000107,0.000096
0,Deaths,Tokelau,Percent,0.000007,2018,0.000007,0.000007
0,Deaths,Tokelau,Rate,0.006658,2018,0.006898,0.006159
0,Deaths,Algeria,Percent,0.000005,2017,0.000006,0.000004
0,Deaths,Algeria,Rate,0.003145,2017,0.003472,0.002679
0,Deaths,Tajikistan,Number,0.254247,2018,0.284469,0.237924
0,Deaths,Tajikistan,Percent,0.000005,2018,0.000006,0.000005
0,Deaths,Tajikistan,Rate,0.00266,2018,0.002976,0.002489
0,Deaths,Madagascar,Percent,0.000004,2019,0.000004,0.000004
0,Deaths,Madagascar,Rate,0.004155,2019,0.004311,0.003897
0,Deaths,'Antigua and Barbuda',Number,0.00796,2019,0.00778,0.007776
0,Deaths,'Antigua and Barbuda',Percent,0.000013,2019,0.000012,0.000013
0,Deaths,'Antigua and Barbuda',Rate,0.008837,2019,0.008637,0.008632
0,Deaths,Pakistan,Percent,0.000005,2017,0.000005,0.000005
0,Deaths,Pakistan,Rate,0.004011,2017,0.00411,0.003785
0,Deaths,'Dominican Republic',Number,0.692275,2019,0.685773,0.642735
0,Deaths,'Dominican Republic',Percent,0.000009,2019,0.000009,0.000008
0,Deaths,'Dominican Republic',Rate,0.006403,2019,0.006342,0.005945
0,Deaths,Kenya,Percent,0.000006,2019,0.000006,0.000005
0,Deaths,Kenya,Rate,0.003749,2019,0.003831,0.003446
0,Deaths,'Micronesia (Federated States of)',Number,0.006202,2019,0.006303,0.005812
0,Deaths,'Micronesia (Federated States of)',Percent,0.000007,2019,0.000007,0.000006
0,Deaths,'Micronesia (Federated States of)',Rate,0.005972,2019,0.006069,0.005596
0,Deaths,Eritrea,Number,0.296691,2018,0.306889,0.274812
0,Deaths,Eritrea,Percent,0.000004,2018,0.000004,0.000004
0,Deaths,Eritrea,Rate,0.004696,2018,0.004857,0.004349
0,Deaths,Argentina,Percent,0.000014,2019,0.000013,0.000014
0,Deaths,Argentina,Rate,0.011147,2019,0.010558,0.011126
0,Deaths,Bulgaria,Percent,0.000011,2017,0.00001,0.000011
0,Deaths,Bulgaria,Rate,0.018252,2017,0.017269,0.018447
0,Deaths,'Northern Mariana Islands',Number,0.004345,2017,0.00439,0.004067
0,Deaths,'Northern Mariana Islands',Percent,0.000012,2017,0.000012,0.000011
0,Deaths,'Northern Mariana Islands',Rate,0.008834,2017,0.008926,0.00827
0,Deaths,Serbia,Percent,0.000015,2017,0.000014,0.000014
0,Deaths,Serbia,Rate,0.020421,2017,0.019758,0.020068
0,Deaths,Portugal,Percent,0.000017,2018,0.000016,0.000016
0,Deaths,Portugal,Rate,0.01922,2018,0.018496,0.018296
0,Deaths,Afghanistan,Number,0.559513,2018,0.615528,0.44815
0,Deaths,Afghanistan,Percent,0.000002,2018,0.000002,0.000001
0,Deaths,Afghanistan,Rate,0.001723,2018,0.001895,0.00138
0,Deaths,Luxembourg,Number,0.081195,2017,0.078208,0.079274
0,Deaths,Luxembourg,Percent,0.000019,2017,0.000018,0.000019
0,Deaths,Luxembourg,Rate,0.01377,2017,0.013263,0.013444
0,Deaths,Rwanda,Number,0.636388,2020,0.663052,0.580431
0,Deaths,Rwanda,Percent,0.000006,2020,0.000006,0.000005
0,Deaths,Rwanda,Rate,0.00484,2020,0.005043,0.004414
0,Deaths,Brazil,Percent,0.00001,2020,0.000009,0.00001
0,Deaths,Brazil,Rate,0.008191,2020,0.007753,0.008087
0,Deaths,Lithuania,Number,0.566108,2019,0.534348,0.566899
0,Deaths,Lithuania,Percent,0.000013,2019,0.000012,0.000013
0,Deaths,Lithuania,Rate,0.020005,2019,0.018882,0.020033
0,Deaths,Kazakhstan,Percent,0.000008,2017,0.000007,0.000008
0,Deaths,Kazakhstan,Rate,0.00646,2017,0.006177,0.006367
0,Deaths,'Equatorial Guinea',Number,0.045372,2017,0.049234,0.038456
0,Deaths,'Equatorial Guinea',Percent,0.000004,2017,0.000004,0.000003
0,Deaths,'Equatorial Guinea',Rate,0.003342,2017,0.003627,0.002833
0,Deaths,'Sri Lanka',Percent,0.000008,2017,0.000007,0.000008
0,Deaths,'Sri Lanka',Rate,0.005562,2017,0.005395,0.005357
0,Deaths,Ghana,Number,0.800984,2017,0.81939,0.742688
0,Deaths,Ghana,Percent,0.000003,2017,0.000002,0.000002
0,Deaths,Ghana,Rate,0.002688,2017,0.002749,0.002492
0,Deaths,'Taiwan (Province of China)',Percent,0.00002,2018,0.000018,0.000019
0,Deaths,'Taiwan (Province of China)',Rate,0.015108,2018,0.014377,0.014878
0,Deaths,Greece,Percent,0.000017,2018,0.000017,0.000017
0,Deaths,Greece,Rate,0.020776,2018,0.019955,0.019993
0,Deaths,Morocco,Percent,0.000005,2017,0.000005,0.000004
0,Deaths,Morocco,Rate,0.00403,2017,0.004425,0.003433
0,Deaths,Ecuador,Number,0.889106,2017,0.840994,0.885974
0,Deaths,Ecuador,Percent,0.000011,2017,0.00001,0.000011
0,Deaths,Ecuador,Rate,0.005401,2017,0.005108,0.005382
0,Deaths,Belarus,Percent,0.00001,2018,0.000009,0.00001
0,Deaths,Belarus,Rate,0.013622,2018,0.012874,0.013735
0,Deaths,'South Sudan',Number,0.45975,2017,0.485427,0.416037
0,Deaths,'South Sudan',Percent,0.000003,2017,0.000004,0.000003
0,Deaths,'South Sudan',Rate,0.004626,2017,0.004884,0.004186
0,Deaths,Bahamas,Number,0.042591,2019,0.040861,0.042418
0,Deaths,Bahamas,Percent,0.000012,2019,0.000011,0.000012
0,Deaths,Bahamas,Rate,0.010634,2019,0.010202,0.01059
0,Deaths,'Russian Federation',Percent,0.00001,2017,0.00001,0.000011
0,Deaths,'Russian Federation',Rate,0.01411,2017,0.01332,0.014203
0,Deaths,Turkmenistan,Number,0.226944,2018,0.219276,0.22497
0,Deaths,Turkmenistan,Percent,0.000006,2018,0.000005,0.000006
0,Deaths,Turkmenistan,Rate,0.004297,2018,0.004152,0.00426
0,Deaths,'United Republic of Tanzania',Percent,0.000004,2018,0.000005,0.000004
0,Deaths,'United Republic of Tanzania',Rate,0.003434,2018,0.003586,0.003195
0,Deaths,'Central African Republic',Number,0.152909,2018,0.170445,0.123862
0,Deaths,'Central African Republic',Percent,0.000001,2018,0.000001,0.000001
0,Deaths,'Central African Republic',Rate,0.002637,2018,0.002939,0.002136
0,Deaths,Bangladesh,Percent,0.000007,2018,0.000007,0.000006
0,Deaths,Bangladesh,Rate,0.004769,2018,0.004979,0.004463
0,Deaths,Chad,Number,0.432876,2020,0.464424,0.383357
0,Deaths,Chad,Percent,0.000001,2020,0.000001,0.000001
0,Deaths,Chad,Rate,0.002514,2020,0.002697,0.002227
0,Deaths,'Taiwan (Province of China)',Percent,0.00002,2019,0.000018,0.000019
0,Deaths,'Taiwan (Province of China)',Rate,0.015221,2019,0.014516,0.014945
0,Deaths,'Puerto Rico',Number,0.408072,2017,0.390397,0.399352
0,Deaths,'Puerto Rico',Percent,0.000012,2017,0.000011,0.000009
0,Deaths,'Puerto Rico',Rate,0.011511,2017,0.011012,0.011265
0,Deaths,Indonesia,Percent,0.000007,2019,0.000007,0.000007
0,Deaths,Indonesia,Rate,0.004931,2019,0.005128,0.004624
0,Deaths,Belize,Number,0.017682,2018,0.017022,0.01755
0,Deaths,Belize,Percent,0.000008,2018,0.000008,0.000008
0,Deaths,Belize,Rate,0.004552,2018,0.004381,0.004518
0,Deaths,Grenada,Number,0.013247,2019,0.013029,0.012967
0,Deaths,Grenada,Percent,0.000012,2019,0.000012,0.000012
0,Deaths,Grenada,Rate,0.01162,2019,0.011429,0.011375
0,Deaths,'Venezuela (Bolivarian Republic of)',Percent,0.00001,2020,0.00001,0.00001
0,Deaths,'Venezuela (Bolivarian Republic of)',Rate,0.008509,2020,0.00821,0.008458
0,Deaths,Canada,Percent,0.000018,2020,0.000017,0.000018
0,Deaths,Canada,Rate,0.016021,2020,0.01531,0.01546
0,Deaths,Niger,Number,0.418875,2018,0.472184,0.370376
0,Deaths,Niger,Percent,0.000001,2018,0.000001,0.000001
0,Deaths,Niger,Rate,0.001892,2018,0.002133,0.001673
0,Deaths,Qatar,Number,0.028917,2020,0.030735,0.027642
0,Deaths,Qatar,Percent,0.000008,2020,0.000009,0.000008
0,Deaths,Qatar,Rate,0.000997,2020,0.001059,0.000953
0,Deaths,Iraq,Percent,0.000008,2018,0.000008,0.000008
0,Deaths,Iraq,Rate,0.00461,2018,0.004683,0.004371
0,Deaths,Lesotho,Number,0.085282,2018,0.096875,0.073523
0,Deaths,Lesotho,Percent,0.000003,2018,0.000003,0.000002
0,Deaths,Lesotho,Rate,0.004515,2018,0.005129,0.003892
0,Deaths,Mexico,Percent,0.000008,2019,0.000007,0.000008
0,Deaths,Mexico,Rate,0.005191,2019,0.004874,0.005248
0,Deaths,Senegal,Number,0.402344,2019,0.419287,0.371363
0,Deaths,Senegal,Percent,0.000003,2019,0.000003,0.000003
0,Deaths,Senegal,Rate,0.002442,2019,0.002545,0.002254
0,Deaths,Tuvalu,Number,0.000956,2018,0.001018,0.000849
0,Deaths,Tuvalu,Percent,0.000007,2018,0.000007,0.000006
0,Deaths,Tuvalu,Rate,0.00872,2018,0.009285,0.007748
0,Deaths,Tonga,Number,0.007907,2020,0.008286,0.007162
0,Deaths,Tonga,Percent,0.00001,2020,0.00001,0.000009
0,Deaths,Tonga,Rate,0.007601,2020,0.007964,0.006884
0,Deaths,Congo,Number,0.176174,2018,0.187866,0.156266
0,Deaths,Congo,Percent,0.000004,2018,0.000004,0.000003
0,Deaths,Congo,Rate,0.003242,2018,0.003457,0.002876
0,Deaths,'Papua New Guinea',Number,0.348764,2019,0.364371,0.315056
0,Deaths,'Papua New Guinea',Percent,0.000005,2019,0.000005,0.000004
0,Deaths,'Papua New Guinea',Rate,0.003518,2019,0.003675,0.003178
0,Deaths,Andorra,Number,0.012015,2018,0.012047,0.011326
0,Deaths,Andorra,Percent,0.000022,2018,0.000022,0.00002
0,Deaths,Andorra,Rate,0.014951,2018,0.014991,0.014094
0,Deaths,'Saint Vincent and the Grenadines',Number,0.013154,2020,0.012817,0.012887
0,Deaths,'Saint Vincent and the Grenadines',Percent,0.000012,2020,0.000011,0.000012
0,Deaths,'Saint Vincent and the Grenadines',Rate,0.011337,2020,0.011046,0.011106
0,Deaths,Spain,Percent,0.000018,2018,0.000017,0.000017
0,Deaths,Spain,Rate,0.017261,2018,0.0167,0.016352
0,Deaths,Denmark,Percent,0.000022,2019,0.00002,0.000021
0,Deaths,Denmark,Rate,0.021022,2019,0.020135,0.020269
0,Deaths,Benin,Number,0.279546,2019,0.295461,0.245666
0,Deaths,Benin,Percent,0.000002,2019,0.000002,0.000002
0,Deaths,Benin,Rate,0.002212,2019,0.002338,0.001944
0,Deaths,Bahrain,Number,0.041869,2017,0.042212,0.039955
0,Deaths,Bahrain,Percent,0.00001,2017,0.00001,0.00001
0,Deaths,Bahrain,Rate,0.002859,2017,0.002882,0.002728
0,Deaths,'Syrian Arab Republic',Number,0.531478,2017,0.543301,0.496178
0,Deaths,'Syrian Arab Republic',Percent,0.000004,2017,0.000003,0.000003
0,Deaths,'Syrian Arab Republic',Rate,0.002894,2017,0.002958,0.002702
0,Deaths,Uganda,Percent,0.000005,2018,0.000005,0.000005
0,Deaths,Uganda,Rate,0.00422,2018,0.00438,0.003799
0,Deaths,Ethiopia,Percent,0.000006,2018,0.000006,0.000006
0,Deaths,Ethiopia,Rate,0.004854,2018,0.004989,0.004559
0,Deaths,Guinea-Bissau,Number,0.053976,2019,0.05728,0.048142
0,Deaths,Guinea-Bissau,Percent,0.000002,2019,0.000002,0.000002
0,Deaths,Guinea-Bissau,Rate,0.002723,2019,0.002889,0.002429
0,Deaths,Gabon,Number,0.086051,2017,0.090587,0.078034
0,Deaths,Gabon,Percent,0.000005,2017,0.000006,0.000005
0,Deaths,Gabon,Rate,0.004982,2017,0.005245,0.004518
0,Deaths,'Cook Islands',Number,0.00202,2019,0.002095,0.001872
0,Deaths,'Cook Islands',Percent,0.000012,2019,0.000013,0.000012
0,Deaths,'Cook Islands',Rate,0.012373,2019,0.012836,0.011468
0,Deaths,Czechia,Percent,0.000015,2020,0.000014,0.000015
0,Deaths,Czechia,Rate,0.019318,2020,0.018226,0.01929
0,Deaths,Peru,Percent,0.000013,2017,0.000012,0.000013
0,Deaths,Peru,Rate,0.006112,2017,0.005976,0.005965
0,Deaths,Slovakia,Number,0.964347,2017,0.93021,0.943961
0,Deaths,Slovakia,Percent,0.000017,2017,0.000016,0.000017
0,Deaths,Slovakia,Rate,0.017729,2017,0.017101,0.017354
0,Deaths,Iceland,Number,0.045539,2018,0.044422,0.043482
0,Deaths,Iceland,Percent,0.000019,2018,0.000019,0.000019
0,Deaths,Iceland,Rate,0.013092,2018,0.01277,0.0125
0,Deaths,Togo,Number,0.224096,2019,0.239519,0.200513
0,Deaths,Togo,Percent,0.000003,2019,0.000003,0.000002
0,Deaths,Togo,Rate,0.002827,2019,0.003021,0.00253
0,Deaths,Paraguay,Number,0.457044,2020,0.44199,0.426344
0,Deaths,Paraguay,Percent,0.000009,2020,0.000009,0.000009
0,Deaths,Paraguay,Rate,0.007292,2020,0.007051,0.006802
0,Deaths,Armenia,Number,0.35928,2020,0.340526,0.358492
0,Deaths,Armenia,Percent,0.000009,2020,0.000008,0.000009
0,Deaths,Armenia,Rate,0.011779,2020,0.011164,0.011753
0,Deaths,Thailand,Percent,0.000014,2017,0.000015,0.000014
0,Deaths,Thailand,Rate,0.011313,2017,0.011618,0.010926
0,Deaths,Ukraine,Percent,0.000008,2017,0.000008,0.000008
0,Deaths,Ukraine,Rate,0.012425,2017,0.011746,0.012597
0,Deaths,Bhutan,Number,0.031644,2018,0.033529,0.028801
0,Deaths,Bhutan,Percent,0.000006,2018,0.000006,0.000005
0,Deaths,Bhutan,Rate,0.004176,2018,0.004424,0.0038
0,Deaths,'Saint Kitts and Nevis',Number,0.004389,2017,0.004235,0.004299
0,Deaths,'Saint Kitts and Nevis',Percent,0.000011,2017,0.00001,0.000011
0,Deaths,'Saint Kitts and Nevis',Rate,0.009051,2017,0.008733,0.008865
0,Deaths,Palestine,Number,0.148021,2017,0.143927,0.140803
0,Deaths,Palestine,Percent,0.000009,2017,0.000009,0.000009
0,Deaths,Palestine,Rate,0.003043,2017,0.002959,0.002895
0,Deaths,Namibia,Number,0.094273,2018,0.096874,0.082418
0,Deaths,Namibia,Percent,0.000004,2018,0.000004,0.000003
0,Deaths,Namibia,Rate,0.003596,2018,0.003695,0.003144
0,Deaths,'Côte dIvoire',Number,0.861948,2020,0.908703,0.786549
0,Deaths,'Côte dIvoire',Percent,0.000003,2020,0.000003,0.000003
0,Deaths,'Côte dIvoire',Rate,0.002868,2020,0.003023,0.002617
0,Deaths,Myanmar,Percent,0.000005,2020,0.000005,0.000005
0,Deaths,Myanmar,Rate,0.005766,2020,0.006068,0.00524
0,Deaths,Kyrgyzstan,Number,0.261862,2017,0.24878,0.263024
0,Deaths,Kyrgyzstan,Percent,0.000007,2017,0.000006,0.000007
0,Deaths,Kyrgyzstan,Rate,0.004013,2017,0.003812,0.004031
0,Deaths,Malta,Number,0.063877,2017,0.062227,0.061042
0,Deaths,Malta,Percent,0.000017,2017,0.000016,0.000016
0,Deaths,Malta,Rate,0.013233,2017,0.012892,0.012646
0,Deaths,Barbados,Number,0.047191,2019,0.045941,0.045964
0,Deaths,Barbados,Percent,0.000015,2019,0.000014,0.000015
0,Deaths,Barbados,Rate,0.015738,2019,0.015321,0.015329
0,Deaths,Estonia,Number,0.249295,2018,0.237182,0.246553
0,Deaths,Estonia,Percent,0.000015,2018,0.000014,0.000015
0,Deaths,Estonia,Rate,0.018896,2018,0.017977,0.018688
0,Deaths,Finland,Number,0.954956,2019,0.924893,0.901865
0,Deaths,Finland,Percent,0.000017,2019,0.000016,0.000016
0,Deaths,Finland,Rate,0.017268,2019,0.016724,0.016308
0,Deaths,Australia,Percent,0.000019,2017,0.000018,0.000018
0,Deaths,Australia,Rate,0.013487,2017,0.012973,0.012821
0,Deaths,Malawi,Number,0.866538,2019,0.939344,0.750426
0,Deaths,Malawi,Percent,0.000005,2019,0.000005,0.000004
0,Deaths,Malawi,Rate,0.004597,2019,0.004983,0.003981
0,Deaths,Samoa,Number,0.006551,2019,0.007257,0.005637
0,Deaths,Samoa,Percent,0.000004,2019,0.000004,0.000003
0,Deaths,Samoa,Rate,0.003127,2019,0.003464,0.002691
0,Deaths,Hungary,Percent,0.000014,2020,0.000013,0.000015
0,Deaths,Hungary,Rate,0.022306,2020,0.020973,0.022481
0,Deaths,'Trinidad and Tobago',Number,0.148539,2020,0.143561,0.146826
0,Deaths,'Trinidad and Tobago',Percent,0.00001,2020,0.00001,0.00001
0,Deaths,'Trinidad and Tobago',Rate,0.010627,2020,0.010271,0.010505
0,Deaths,Liberia,Number,0.182113,2019,0.197983,0.153641
0,Deaths,Liberia,Percent,0.000003,2019,0.000003,0.000003
0,Deaths,Liberia,Rate,0.003502,2019,0.003807,0.002954
0,Deaths,India,Percent,0.000005,2018,0.000005,0.000005
0,Deaths,India,Rate,0.003998,2018,0.004021,0.003884
0,Deaths,Nicaragua,Number,0.299781,2019,0.305404,0.2919
0,Deaths,Nicaragua,Percent,0.000008,2019,0.000008,0.000008
0,Deaths,Nicaragua,Rate,0.004598,2019,0.004684,0.004477
0,Deaths,Timor-Leste,Number,0.044273,2017,0.047277,0.038565
0,Deaths,Timor-Leste,Percent,0.000004,2017,0.000005,0.000004
0,Deaths,Timor-Leste,Rate,0.003453,2017,0.003687,0.003007
0,Deaths,Greenland,Number,0.011134,2019,0.011099,0.010786
0,Deaths,Greenland,Percent,0.00002,2019,0.00002,0.00002
0,Deaths,Greenland,Rate,0.019886,2019,0.019823,0.019265
0,Deaths,'San Marino',Number,0.004867,2017,0.005046,0.004326
0,Deaths,'San Marino',Percent,0.000019,2017,0.000019,0.000017
0,Deaths,'San Marino',Rate,0.014103,2017,0.014623,0.012536
0,Deaths,Jordan,Number,0.404817,2018,0.401064,0.388508
0,Deaths,Jordan,Percent,0.000011,2018,0.000011,0.000011
0,Deaths,Jordan,Rate,0.003649,2018,0.003615,0.003502
0,Deaths,Colombia,Percent,0.000012,2019,0.000011,0.000012
0,Deaths,Colombia,Rate,0.006513,2019,0.006168,0.006459
0,Deaths,Botswana,Number,0.072256,2017,0.079656,0.061567
0,Deaths,Botswana,Percent,0.000004,2017,0.000004,0.000003
0,Deaths,Botswana,Rate,0.003184,2017,0.00351,0.002713
0,Deaths,'Cook Islands',Number,0.002038,2018,0.002096,0.001894
0,Deaths,'Cook Islands',Percent,0.000012,2018,0.000013,0.000012
0,Deaths,'Cook Islands',Rate,0.012129,2018,0.012477,0.011274
0,Deaths,'Viet Nam',Percent,0.00001,2019,0.00001,0.000009
0,Deaths,'Viet Nam',Rate,0.006691,2019,0.006846,0.006231
0,Deaths,Nigeria,Percent,0.000002,2018,0.000002,0.000002
0,Deaths,Nigeria,Rate,0.002668,2018,0.002877,0.002315
0,Deaths,'Saudi Arabia',Number,0.835785,2020,0.916844,0.789095
0,Deaths,'Saudi Arabia',Percent,0.000006,2020,0.000007,0.000006
0,Deaths,'Saudi Arabia',Rate,0.002554,2020,0.002802,0.002412
0,Deaths,'United States of America',Percent,0.000012,2020,0.000012,0.000012
0,Deaths,'United States of America',Rate,0.013749,2020,0.013155,0.01335
0,Deaths,France,Percent,0.00002,2019,0.00002,0.000019
0,Deaths,France,Rate,0.018948,2019,0.018312,0.017883
0,Deaths,Zambia,Number,0.599682,2018,0.629593,0.546595
0,Deaths,Zambia,Percent,0.000003,2018,0.000003,0.000003
0,Deaths,Zambia,Rate,0.003367,2018,0.003535,0.003069
0,Deaths,'Lao Peoples Democratic Republic',Number,0.324222,2019,0.341368,0.300956
0,Deaths,'Lao Peoples Democratic Republic',Percent,0.000005,2019,0.000005,0.000005
0,Deaths,'Lao Peoples Democratic Republic',Rate,0.00452,2019,0.004758,0.004195
0,Deaths,'Sierra Leone',Number,0.245723,2019,0.257407,0.225295
0,Deaths,'Sierra Leone',Percent,0.000002,2019,0.000002,0.000002
0,Deaths,'Sierra Leone',Rate,0.003187,2019,0.003338,0.002922
0,Deaths,Egypt,Percent,0.000006,2017,0.000006,0.000006
0,Deaths,Egypt,Rate,0.00382,2017,0.003839,0.003566
0,Deaths,Palau,Number,0.00225,2017,0.002272,0.002115
0,Deaths,Palau,Percent,0.000012,2017,0.000012,0.000011
0,Deaths,Palau,Rate,0.012483,2017,0.012603,0.011733
0,Deaths,Sweden,Percent,0.000018,2018,0.000017,0.000017
0,Deaths,Sweden,Rate,0.016966,2018,0.016411,0.016103
0,Deaths,Austria,Percent,0.000017,2018,0.000016,0.000016
0,Deaths,Austria,Rate,0.01694,2018,0.016261,0.016339
0,Deaths,Chile,Percent,0.000017,2019,0.000016,0.000017
0,Deaths,Chile,Rate,0.010713,2019,0.010187,0.010485
0,Deaths,Slovenia,Number,0.418067,2017,0.400165,0.406316
0,Deaths,Slovenia,Percent,0.00002,2017,0.000018,0.000019
0,Deaths,Slovenia,Rate,0.02021,2017,0.019344,0.019642
0,Deaths,Poland,Percent,0.000016,2020,0.000015,0.000016
0,Deaths,Poland,Rate,0.020509,2020,0.019399,0.020477
0,Deaths,'Burkina Faso',Number,0.487134,2019,0.504515,0.443037
0,Deaths,'Burkina Faso',Percent,0.000002,2019,0.000002,0.000002
0,Deaths,'Burkina Faso',Rate,0.002246,2019,0.002326,0.002043
0,Deaths,Guyana,Number,0.041604,2019,0.040617,0.041119
0,Deaths,Guyana,Percent,0.000006,2019,0.000006,0.000006
0,Deaths,Guyana,Rate,0.005171,2019,0.005048,0.005111
0,Deaths,Suriname,Number,0.045173,2020,0.044385,0.042933
0,Deaths,Suriname,Percent,0.000009,2020,0.000008,0.000008
0,Deaths,Suriname,Rate,0.007701,2020,0.007566,0.007319
0,Deaths,Malaysia,Percent,0.00001,2019,0.000009,0.00001
0,Deaths,Malaysia,Rate,0.005579,2019,0.00538,0.005499
0,Deaths,Kenya,Percent,0.000005,2018,0.000005,0.000005
0,Deaths,Kenya,Rate,0.00368,2018,0.003755,0.003389
0,Deaths,Tunisia,Number,0.94558,2017,0.95845,0.903994
0,Deaths,Tunisia,Percent,0.000012,2017,0.000012,0.000012
0,Deaths,Tunisia,Rate,0.008173,2017,0.008284,0.007813
0,Deaths,Comoros,Number,0.018424,2017,0.01903,0.016948
0,Deaths,Comoros,Percent,0.000004,2017,0.000004,0.000003
0,Deaths,Comoros,Rate,0.002357,2017,0.002434,0.002168
0,Deaths,Mauritius,Number,0.095966,2019,0.091267,0.096011
0,Deaths,Mauritius,Percent,0.000008,2019,0.000007,0.000008
0,Deaths,Mauritius,Rate,0.007493,2019,0.007126,0.007496
0,Deaths,Cuba,Percent,0.000016,2018,0.000015,0.000016
0,Deaths,Cuba,Rate,0.015557,2018,0.014725,0.015441
0,Deaths,Haiti,Number,0.598767,2019,0.634099,0.54127
0,Deaths,Haiti,Percent,0.000004,2019,0.000004,0.000004
0,Deaths,Haiti,Rate,0.004793,2019,0.005075,0.004332
0,Deaths,Ireland,Number,0.637939,2018,0.610651,0.615855
0,Deaths,Ireland,Percent,0.00002,2018,0.000018,0.000019
0,Deaths,Ireland,Rate,0.012787,2018,0.01224,0.012345
0,Deaths,'Democratic Republic of the Congo',Percent,0.000004,2020,0.000004,0.000003
0,Deaths,'Democratic Republic of the Congo',Rate,0.004202,2020,0.004593,0.003411
0,Deaths,'North Macedonia',Number,0.330102,2020,0.317278,0.318745
0,Deaths,'North Macedonia',Percent,0.000012,2020,0.000011,0.000012
0,Deaths,'North Macedonia',Rate,0.01718,2020,0.016512,0.016589
0,Deaths,Netherlands,Percent,0.000022,2017,0.000021,0.000021
0,Deaths,Netherlands,Rate,0.020352,2017,0.019577,0.019433
0,Deaths,Luxembourg,Number,0.080535,2020,0.077313,0.079285
0,Deaths,Luxembourg,Percent,0.000017,2020,0.000016,0.000017
0,Deaths,Luxembourg,Rate,0.012886,2020,0.01237,0.012686
0,Deaths,Nepal,Number,0.829789,2018,0.859991,0.771648
0,Deaths,Nepal,Percent,0.000004,2018,0.000004,0.000004
0,Deaths,Nepal,Rate,0.002774,2018,0.002875,0.002579
0,Deaths,Japan,Percent,0.000021,2020,0.000021,0.000019
0,Deaths,Japan,Rate,0.023727,2020,0.023652,0.02112
0,Deaths,Mongolia,Number,0.286489,2017,0.282181,0.279587
0,Deaths,Mongolia,Percent,0.000015,2017,0.000015,0.000015
0,Deaths,Mongolia,Rate,0.009196,2017,0.009057,0.008974
0,Deaths,Croatia,Number,0.923412,2019,0.873533,0.921135
0,Deaths,Croatia,Percent,0.000017,2019,0.000015,0.000017
0,Deaths,Croatia,Rate,0.022652,2019,0.021428,0.022596
0,Deaths,Switzerland,Percent,0.000018,2018,0.000018,0.000018
0,Deaths,Switzerland,Rate,0.015188,2018,0.014706,0.014376
0,Deaths,Latvia,Number,0.391704,2018,0.371805,0.389479
0,Deaths,Latvia,Percent,0.000013,2018,0.000012,0.000013
0,Deaths,Latvia,Rate,0.019641,2018,0.018643,0.01953
0,Deaths,Lesotho,Number,0.084486,2017,0.096,0.073295
0,Deaths,Lesotho,Percent,0.000002,2017,0.000003,0.000002
0,Deaths,Lesotho,Rate,0.004487,2017,0.005098,0.003893
0,Deaths,Panama,Number,0.260066,2019,0.247969,0.257305
0,Deaths,Panama,Percent,0.000012,2019,0.000011,0.000012
0,Deaths,Panama,Rate,0.006621,2019,0.006313,0.006551
0,Deaths,Philippines,Percent,0.000006,2020,0.000006,0.000006
0,Deaths,Philippines,Rate,0.004181,2020,0.004106,0.004101
0,Deaths,Maldives,Number,0.014287,2019,0.014217,0.013477
0,Deaths,Maldives,Percent,0.000007,2019,0.000007,0.000007
0,Deaths,Maldives,Rate,0.002922,2019,0.002907,0.002756
0,Deaths,Belgium,Percent,0.000018,2018,0.000017,0.000017
0,Deaths,Belgium,Rate,0.018649,2018,0.018069,0.017568
0,Deaths,'New Zealand',Number,0.673436,2017,0.649556,0.636453
0,Deaths,'New Zealand',Percent,0.000019,2017,0.000018,0.000018
0,Deaths,'New Zealand',Rate,0.01397,2017,0.013474,0.013203
0,Deaths,Burundi,Number,0.369288,2017,0.386098,0.333462
0,Deaths,Burundi,Percent,0.000003,2017,0.000003,0.000003
0,Deaths,Burundi,Rate,0.003173,2017,0.003317,0.002865
0,Deaths,Azerbaijan,Number,0.761948,2020,0.79761,0.713102
0,Deaths,Azerbaijan,Percent,0.000008,2020,0.000008,0.000008
0,Deaths,Azerbaijan,Rate,0.007355,2020,0.007699,0.006883
0,Deaths,Vanuatu,Number,0.008876,2019,0.009416,0.008046
0,Deaths,Vanuatu,Percent,0.000004,2019,0.000004,0.000004
0,Deaths,Vanuatu,Rate,0.002925,2019,0.003103,0.002652
0,Deaths,Romania,Percent,0.000011,2020,0.00001,0.000011
0,Deaths,Romania,Rate,0.017645,2020,0.016598,0.0179
0,Deaths,Honduras,Number,0.293458,2018,0.300172,0.269496
0,Deaths,Honduras,Percent,0.000006,2018,0.000006,0.000005
0,Deaths,Honduras,Rate,0.003039,2018,0.003108,0.002791
0,Deaths,Guinea,Number,0.35727,2018,0.380178,0.319671
0,Deaths,Guinea,Percent,0.000002,2018,0.000002,0.000002
0,Deaths,Guinea,Rate,0.002875,2018,0.003059,0.002572
0,Deaths,Eswatini,Number,0.052651,2018,0.06303,0.041927
0,Deaths,Eswatini,Percent,0.000003,2018,0.000004,0.000003
0,Deaths,Eswatini,Rate,0.004584,2018,0.005487,0.00365
0,Deaths,Djibouti,Number,0.046396,2017,0.048843,0.042939
0,Deaths,Djibouti,Percent,0.000005,2017,0.000005,0.000005
0,Deaths,Djibouti,Rate,0.003969,2017,0.004178,0.003673
0,Deaths,Uruguay,Number,0.650469,2019,0.6192,0.641228
0,Deaths,Uruguay,Percent,0.000018,2019,0.000017,0.000018
0,Deaths,Uruguay,Rate,0.018942,2019,0.018031,0.018673
0,Deaths,Guyana,Number,0.040647,2018,0.039547,0.039731
0,Deaths,Guyana,Percent,0.000006,2018,0.000006,0.000006
0,Deaths,Guyana,Rate,0.005187,2018,0.005046,0.00507
0,Deaths,'South Africa',Percent,0.000006,2018,0.000006,0.000006
0,Deaths,'South Africa',Rate,0.006904,2018,0.006964,0.006517
0,Deaths,Mali,Number,0.723671,2019,0.757235,0.655945
0,Deaths,Mali,Percent,0.000003,2019,0.000003,0.000003
0,Deaths,Mali,Rate,0.003374,2019,0.00353,0.003058
0,Deaths,Sudan,Percent,0.000005,2018,0.000005,0.000004
0,Deaths,Sudan,Rate,0.003505,2018,0.003934,0.002901
0,Deaths,Germany,Percent,0.000017,2019,0.000016,0.000017
0,Deaths,Germany,Rate,0.020891,2019,0.02009,0.019906
0,Deaths,Seychelles,Number,0.009345,2017,0.009247,0.009009
0,Deaths,Seychelles,Percent,0.000012,2017,0.000012,0.000012
0,Deaths,Seychelles,Rate,0.009214,2017,0.009117,0.008883
0,Deaths,Angola,Number,0.859198,2017,0.902397,0.77758
0,Deaths,Angola,Percent,0.000003,2017,0.000003,0.000003
0,Deaths,Angola,Rate,0.002894,2017,0.00304,0.002619
0,Deaths,Mozambique,Number,0.591829,2019,0.618471,0.545025
0,Deaths,Mozambique,Percent,0.000002,2019,0.000001,0.000001
0,Deaths,Mozambique,Rate,0.001981,2019,0.00207,0.001824
0,Deaths,'Brunei Darussalam',Number,0.026515,2017,0.025939,0.025443
0,Deaths,'Brunei Darussalam',Percent,0.000016,2017,0.000015,0.000015
0,Deaths,'Brunei Darussalam',Rate,0.006106,2017,0.005973,0.005859
0,Deaths,Belarus,Percent,0.00001,2017,0.000009,0.00001
0,Deaths,Belarus,Rate,0.013322,2017,0.012583,0.013412
0,Deaths,'Syrian Arab Republic',Number,0.55799,2020,0.57178,0.513849
0,Deaths,'Syrian Arab Republic',Percent,0.000005,2020,0.000005,0.000005
0,Deaths,'Syrian Arab Republic',Rate,0.003201,2020,0.00328,0.002948
0,Deaths,Dominica,Number,0.008931,2018,0.009041,0.008482
0,Deaths,Dominica,Percent,0.000014,2018,0.000014,0.000013
0,Deaths,Dominica,Rate,0.012749,2018,0.012905,0.012107
0,Deaths,'Equatorial Guinea',Number,0.053245,2020,0.05712,0.044519
0,Deaths,'Equatorial Guinea',Percent,0.000004,2020,0.000004,0.000003
0,Deaths,'Equatorial Guinea',Rate,0.003558,2020,0.003817,0.002975
0,Deaths,Norway,Number,0.819217,2017,0.790301,0.780825
0,Deaths,Norway,Percent,0.000019,2017,0.000018,0.000018
0,Deaths,Norway,Rate,0.015586,2017,0.015036,0.014856
0,Deaths,Greece,Percent,0.000017,2017,0.000016,0.000017
0,Deaths,Greece,Rate,0.021141,2017,0.020326,0.020421
0,Deaths,'Costa Rica',Number,0.376407,2019,0.357945,0.370116
0,Deaths,'Costa Rica',Percent,0.000015,2019,0.000014,0.000015
0,Deaths,'Costa Rica',Rate,0.007458,2019,0.007092,0.007334
0,Deaths,Greenland,Number,0.011099,2018,0.011046,0.010764
0,Deaths,Greenland,Percent,0.00002,2018,0.00002,0.00002
0,Deaths,Greenland,Rate,0.019864,2018,0.019768,0.019264
0,Deaths,'Sao Tome and Principe',Number,0.008202,2018,0.008714,0.007492
0,Deaths,'Sao Tome and Principe',Percent,0.000006,2018,0.000006,0.000005
0,Deaths,'Sao Tome and Principe',Rate,0.003952,2018,0.004198,0.00361
0,Deaths,'Solomon Islands',Number,0.042034,2019,0.043876,0.038471
0,Deaths,'Solomon Islands',Percent,0.000006,2019,0.000006,0.000006
0,Deaths,'Solomon Islands',Rate,0.005565,2019,0.005809,0.005094
0,Deaths,Malta,Number,0.067576,2020,0.06532,0.065002
0,Deaths,Malta,Percent,0.000015,2020,0.000015,0.000015
0,Deaths,Malta,Rate,0.012992,2020,0.012558,0.012497
0,Deaths,Namibia,Number,0.089129,2017,0.092359,0.078721
0,Deaths,Namibia,Percent,0.000003,2017,0.000003,0.000003
0,Deaths,Namibia,Rate,0.0035,2017,0.003627,0.003092
0,Deaths,Cameroon,Number,0.919692,2019,0.95055,0.837308
0,Deaths,Cameroon,Percent,0.000003,2019,0.000003,0.000002
0,Deaths,Cameroon,Rate,0.003054,2019,0.003156,0.002781
0,Deaths,Guam,Number,0.013346,2019,0.0129,0.013191
0,Deaths,Guam,Percent,0.000012,2019,0.000011,0.000012
0,Deaths,Guam,Rate,0.008304,2019,0.008026,0.008207
0,Deaths,Czechia,Percent,0.000017,2019,0.000016,0.000017
0,Deaths,Czechia,Rate,0.019121,2019,0.018034,0.019078
0,Deaths,'United Kingdom',Percent,0.000019,2018,0.000018,0.000019
0,Deaths,'United Kingdom',Rate,0.018602,2018,0.017823,0.017834
0,Deaths,Fiji,Number,0.05636,2019,0.057042,0.05306
0,Deaths,Fiji,Percent,0.000006,2019,0.000006,0.000006
0,Deaths,Fiji,Rate,0.006112,2019,0.006186,0.005754
0,Deaths,Israel,Number,0.880162,2018,0.848357,0.833321
0,Deaths,Israel,Percent,0.000019,2018,0.000018,0.000018
0,Deaths,Israel,Rate,0.009566,2018,0.009221,0.009057
0,Deaths,Mauritania,Number,0.160529,2019,0.17541,0.138878
0,Deaths,Mauritania,Percent,0.000005,2019,0.000005,0.000004
0,Deaths,Mauritania,Rate,0.003798,2019,0.00415,0.003286
0,Deaths,Madagascar,Percent,0.000004,2018,0.000004,0.000004
0,Deaths,Madagascar,Rate,0.004103,2018,0.004214,0.003866
0,Deaths,'Iran (Islamic Republic of)',Percent,0.00001,2017,0.00001,0.00001
0,Deaths,'Iran (Islamic Republic of)',Rate,0.005127,2017,0.005211,0.004926
0,Deaths,Oman,Number,0.085723,2019,0.086774,0.079916
0,Deaths,Oman,Percent,0.000007,2019,0.000007,0.000006
0,Deaths,Oman,Rate,0.001959,2019,0.001983,0.001826
0,Deaths,Tunisia,Number,0.940322,2020,0.962901,0.906042
0,Deaths,Tunisia,Percent,0.000008,2020,0.000009,0.000008
0,Deaths,Tunisia,Rate,0.00795,2020,0.008141,0.00766
0,Deaths,'Bolivia (Plurinational State of)',Percent,0.000008,2020,0.000008,0.000008
0,Deaths,'Bolivia (Plurinational State of)',Rate,0.009914,2020,0.010116,0.009528
0,Deaths,Gambia,Number,0.042143,2020,0.045807,0.037808
0,Deaths,Gambia,Percent,0.000001,2020,0.000001,0.000001
0,Deaths,Gambia,Rate,0.001791,2020,0.001946,0.001607
0,Deaths,'Republic of Korea',Percent,0.000021,2020,0.00002,0.000019
0,Deaths,'Republic of Korea',Rate,0.01263,2020,0.012633,0.011852
0,Deaths,Cyprus,Number,0.162434,2018,0.162263,0.153365
0,Deaths,Cyprus,Percent,0.000017,2018,0.000016,0.000016
0,Deaths,Cyprus,Rate,0.012477,2018,0.012464,0.011781
0,Deaths,Somalia,Number,0.374444,2017,0.407161,0.321644
0,Deaths,Somalia,Percent,0.000001,2017,0.000001,0.000001
0,Deaths,Somalia,Rate,0.002151,2017,0.002339,0.001847
0,Deaths,Tajikistan,Number,0.248576,2017,0.274779,0.234376
0,Deaths,Tajikistan,Percent,0.000005,2017,0.000006,0.000005
0,Deaths,Tajikistan,Rate,0.002664,2017,0.002945,0.002512
0,Deaths,Belize,Number,0.017192,2017,0.016692,0.016963
0,Deaths,Belize,Percent,0.000008,2017,0.000008,0.000008
0,Deaths,Belize,Rate,0.004494,2017,0.004364,0.004435
0,Deaths,'Antigua and Barbuda',Number,0.007979,2018,0.007813,0.007832
0,Deaths,'Antigua and Barbuda',Percent,0.000013,2018,0.000012,0.000013
0,Deaths,'Antigua and Barbuda',Rate,0.008884,2018,0.008699,0.00872
0,Deaths,Gabon,Number,0.094941,2020,0.098654,0.086596
0,Deaths,Gabon,Percent,0.000005,2020,0.000005,0.000005
0,Deaths,Gabon,Rate,0.005207,2020,0.00541,0.004749
0,Deaths,'Venezuela (Bolivarian Republic of)',Percent,0.00001,2019,0.00001,0.00001
0,Deaths,'Venezuela (Bolivarian Republic of)',Rate,0.007668,2019,0.007372,0.007643
0,Deaths,Jamaica,Number,0.282226,2019,0.273461,0.277877
0,Deaths,Jamaica,Percent,0.000013,2019,0.000012,0.000013
0,Deaths,Jamaica,Rate,0.009972,2019,0.009662,0.009818
0,Deaths,Tonga,Number,0.007528,2019,0.00793,0.006803
0,Deaths,Tonga,Percent,0.00001,2019,0.000011,0.000009
0,Deaths,Tonga,Rate,0.007242,2019,0.007629,0.006545
0,Deaths,Lithuania,Number,0.561023,2018,0.530306,0.561784
0,Deaths,Lithuania,Percent,0.000013,2018,0.000012,0.000013
0,Deaths,Lithuania,Rate,0.019726,2018,0.018646,0.019753
0,Deaths,Haiti,Number,0.569595,2018,0.601014,0.519035
0,Deaths,Haiti,Percent,0.000004,2018,0.000004,0.000004
0,Deaths,Haiti,Rate,0.004654,2018,0.00491,0.00424
0,Deaths,'Cabo Verde',Number,0.032523,2019,0.033094,0.03008
0,Deaths,'Cabo Verde',Percent,0.00001,2019,0.00001,0.00001
0,Deaths,'Cabo Verde',Rate,0.006413,2019,0.006525,0.005931
0,Deaths,Tokelau,Number,0.000104,2017,0.000106,0.000095
0,Deaths,Tokelau,Percent,0.000007,2017,0.000007,0.000007
0,Deaths,Tokelau,Rate,0.006704,2017,0.006902,0.006144
0,Deaths,Türkiye,Percent,0.000013,2017,0.000012,0.000012
0,Deaths,Türkiye,Rate,0.008338,2017,0.008133,0.007782
0,Deaths,'El Salvador',Number,0.449712,2019,0.455628,0.434415
0,Deaths,'El Salvador',Percent,0.000009,2019,0.000009,0.000009
0,Deaths,'El Salvador',Rate,0.007267,2019,0.007362,0.00702
0,Deaths,Türkiye,Percent,0.000012,2020,0.000011,0.000011
0,Deaths,Türkiye,Rate,0.008932,2020,0.008828,0.008295
0,Deaths,Eritrea,Number,0.284248,2017,0.297005,0.263228
0,Deaths,Eritrea,Percent,0.000004,2017,0.000004,0.000004
0,Deaths,Eritrea,Rate,0.004575,2017,0.00478,0.004236
0,Deaths,Iceland,Number,0.045452,2017,0.04414,0.0435
0,Deaths,Iceland,Percent,0.000019,2017,0.000019,0.000019
0,Deaths,Iceland,Rate,0.013394,2017,0.013007,0.012819
0,Deaths,Serbia,Percent,0.000013,2020,0.000012,0.000013
0,Deaths,Serbia,Rate,0.020386,2020,0.019643,0.020089
0,Deaths,Zimbabwe,Number,0.535693,2018,0.574988,0.466444
0,Deaths,Zimbabwe,Percent,0.000003,2018,0.000004,0.000003
0,Deaths,Zimbabwe,Rate,0.003586,2018,0.003849,0.003122
0,Deaths,Montenegro,Number,0.105719,2020,0.104842,0.098603
0,Deaths,Montenegro,Percent,0.000012,2020,0.000012,0.000012
0,Deaths,Montenegro,Rate,0.016314,2020,0.016179,0.015216
0,Deaths,Ghana,Number,0.942429,2020,0.962018,0.882899
0,Deaths,Ghana,Percent,0.000003,2020,0.000003,0.000003
0,Deaths,Ghana,Rate,0.002985,2020,0.003047,0.002796
0,Deaths,'New Zealand',Number,0.666194,2020,0.641131,0.63514
0,Deaths,'New Zealand',Percent,0.000019,2020,0.000018,0.000018
0,Deaths,'New Zealand',Rate,0.013247,2020,0.012748,0.01263
0,Deaths,Iraq,Percent,0.000007,2017,0.000007,0.000007
0,Deaths,Iraq,Rate,0.004476,2017,0.004556,0.004251
0,Deaths,Estonia,Number,0.248569,2017,0.236155,0.245687
0,Deaths,Estonia,Percent,0.000015,2017,0.000014,0.000015
0,Deaths,Estonia,Rate,0.018889,2017,0.017945,0.01867
0,Deaths,'Dominican Republic',Number,0.660692,2018,0.653399,0.6139
0,Deaths,'Dominican Republic',Percent,0.000009,2018,0.000008,0.000008
0,Deaths,'Dominican Republic',Rate,0.006173,2018,0.006104,0.005735
0,Deaths,Cambodia,Number,0.575489,2018,0.604472,0.534302
0,Deaths,Cambodia,Percent,0.000006,2018,0.000006,0.000005
0,Deaths,Cambodia,Rate,0.003574,2018,0.003754,0.003319
0,Deaths,'Saint Lucia',Number,0.015913,2019,0.015522,0.015666
0,Deaths,'Saint Lucia',Percent,0.000012,2019,0.000012,0.000012
0,Deaths,'Saint Lucia',Rate,0.008986,2019,0.008765,0.008846
0,Deaths,Andorra,Number,0.011608,2017,0.011619,0.010879
0,Deaths,Andorra,Percent,0.000022,2017,0.000021,0.000021
0,Deaths,Andorra,Rate,0.014495,2017,0.014509,0.013585
0,Deaths,Ethiopia,Percent,0.000005,2017,0.000006,0.000005
0,Deaths,Ethiopia,Rate,0.004702,2017,0.004845,0.004394
0,Deaths,Guinea-Bissau,Number,0.050358,2018,0.053118,0.044984
0,Deaths,Guinea-Bissau,Percent,0.000002,2018,0.000002,0.000002
0,Deaths,Guinea-Bissau,Rate,0.002602,2018,0.002744,0.002324
0,Deaths,'United Arab Emirates',Number,0.12765,2020,0.13666,0.120047
0,Deaths,'United Arab Emirates',Percent,0.00001,2020,0.00001,0.00001
0,Deaths,'United Arab Emirates',Rate,0.001285,2020,0.001376,0.001209
0,Deaths,Mexico,Percent,0.000008,2018,0.000007,0.000008
0,Deaths,Mexico,Rate,0.005107,2018,0.0048,0.005159
0,Deaths,China,Percent,0.000015,2017,0.000014,0.000015
0,Deaths,China,Rate,0.010952,2017,0.010687,0.010591
0,Deaths,Malawi,Number,0.827127,2018,0.889512,0.708897
0,Deaths,Malawi,Percent,0.000005,2018,0.000005,0.000004
0,Deaths,Malawi,Rate,0.004505,2018,0.004845,0.003861
0,Deaths,Rwanda,Number,0.605293,2019,0.63232,0.552628
0,Deaths,Rwanda,Percent,0.000006,2019,0.000006,0.000005
0,Deaths,Rwanda,Rate,0.0047,2019,0.004909,0.004291
0,Deaths,Ecuador,Percent,0.000007,2020,0.000006,0.000007
0,Deaths,Ecuador,Rate,0.005786,2020,0.005437,0.005845
0,Deaths,Guam,Number,0.013518,2018,0.01307,0.013309
0,Deaths,Guam,Percent,0.000012,2018,0.000011,0.000012
0,Deaths,Guam,Rate,0.008377,2018,0.008099,0.008247
0,Deaths,Jamaica,Number,0.277809,2018,0.268687,0.275646
0,Deaths,Jamaica,Percent,0.000013,2018,0.000012,0.000013
0,Deaths,Jamaica,Rate,0.009831,2018,0.009508,0.009754
0,Deaths,'United Arab Emirates',Number,0.122944,2017,0.129261,0.115787
0,Deaths,'United Arab Emirates',Percent,0.000011,2017,0.000011,0.00001
0,Deaths,'United Arab Emirates',Rate,0.001272,2017,0.001337,0.001198
0,Deaths,'South Africa',Percent,0.000006,2017,0.000006,0.000006
0,Deaths,'South Africa',Rate,0.006897,2017,0.006882,0.006565
0,Deaths,Kuwait,Number,0.088759,2019,0.085389,0.087772
0,Deaths,Kuwait,Percent,0.00001,2019,0.000009,0.00001
0,Deaths,Kuwait,Rate,0.002099,2019,0.00202,0.002076
0,Deaths,Kiribati,Number,0.003701,2019,0.00403,0.003171
0,Deaths,Kiribati,Percent,0.000005,2019,0.000005,0.000004
0,Deaths,Kiribati,Rate,0.003084,2019,0.003358,0.002643
0,Deaths,Bahamas,Number,0.03938,2018,0.037767,0.039266
0,Deaths,Bahamas,Percent,0.000013,2018,0.000012,0.000013
0,Deaths,Bahamas,Rate,0.00993,2018,0.009523,0.009901
0,Deaths,Canada,Percent,0.00002,2019,0.000019,0.000019
0,Deaths,Canada,Rate,0.015944,2019,0.015262,0.0153
0,Deaths,'Republic of Moldova',Number,0.423508,2019,0.402138,0.423639
0,Deaths,'Republic of Moldova',Percent,0.00001,2019,0.000009,0.00001
0,Deaths,'Republic of Moldova',Rate,0.011418,2019,0.010842,0.011422
0,Deaths,Togo,Number,0.209456,2018,0.220782,0.187184
0,Deaths,Togo,Percent,0.000002,2018,0.000002,0.000002
0,Deaths,Togo,Rate,0.002699,2018,0.002844,0.002412
0,Deaths,Argentina,Percent,0.000014,2018,0.000013,0.000014
0,Deaths,Argentina,Rate,0.011221,2018,0.010625,0.011224
0,Deaths,Vanuatu,Number,0.008632,2018,0.009058,0.007816
0,Deaths,Vanuatu,Percent,0.000004,2018,0.000004,0.000004
0,Deaths,Vanuatu,Rate,0.002907,2018,0.00305,0.002632
0,Deaths,'Central African Republic',Number,0.148608,2017,0.164476,0.119629
0,Deaths,'Central African Republic',Percent,0.000001,2017,0.000001,0.000001
0,Deaths,'Central African Republic',Rate,0.00263,2017,0.00291,0.002117
0,Deaths,Denmark,Percent,0.000021,2018,0.00002,0.00002
0,Deaths,Denmark,Rate,0.020897,2018,0.020038,0.020143
0,Deaths,Poland,Percent,0.000018,2019,0.000017,0.000018
0,Deaths,Poland,Rate,0.020534,2019,0.0195,0.020323
0,Deaths,'United Republic of Tanzania',Percent,0.000004,2017,0.000004,0.000004
0,Deaths,'United Republic of Tanzania',Rate,0.003527,2017,0.003661,0.003256
0,Deaths,Botswana,Number,0.084786,2020,0.091771,0.073682
0,Deaths,Botswana,Percent,0.000004,2020,0.000004,0.000003
0,Deaths,Botswana,Rate,0.00359,2020,0.003886,0.00312
0,Deaths,Myanmar,Percent,0.000005,2019,0.000005,0.000005
0,Deaths,Myanmar,Rate,0.00549,2019,0.005811,0.004976
0,Deaths,Turkmenistan,Number,0.220302,2017,0.213252,0.217692
0,Deaths,Turkmenistan,Percent,0.000006,2017,0.000005,0.000006
0,Deaths,Turkmenistan,Rate,0.004226,2017,0.004091,0.004176
0,Deaths,Chad,Number,0.411254,2019,0.44615,0.366312
0,Deaths,Chad,Percent,0.000001,2019,0.000001,0.000001
0,Deaths,Chad,Rate,0.002481,2019,0.002691,0.002209
0,Deaths,Tuvalu,Number,0.000948,2017,0.001012,0.000846
0,Deaths,Tuvalu,Percent,0.000007,2017,0.000007,0.000006
0,Deaths,Tuvalu,Rate,0.008642,2017,0.009233,0.007718
0,Deaths,Georgia,Number,0.592771,2020,0.563718,0.593203
0,Deaths,Georgia,Percent,0.00001,2020,0.00001,0.000011
0,Deaths,Georgia,Rate,0.016118,2020,0.015327,0.016129
0,Deaths,Portugal,Percent,0.000017,2017,0.000016,0.000017
0,Deaths,Portugal,Rate,0.018771,2017,0.018005,0.018033
0,Deaths,Niger,Number,0.407767,2017,0.458036,0.356151
0,Deaths,Niger,Percent,0.000001,2017,0.000001,0.000001
0,Deaths,Niger,Rate,0.001912,2017,0.002148,0.00167
0,Deaths,Brazil,Percent,0.000012,2019,0.000011,0.000012
0,Deaths,Brazil,Rate,0.008271,2019,0.007876,0.008113
0,Deaths,'Saint Vincent and the Grenadines',Number,0.013078,2019,0.012693,0.012896
0,Deaths,'Saint Vincent and the Grenadines',Percent,0.000012,2019,0.000012,0.000012
0,Deaths,'Saint Vincent and the Grenadines',Rate,0.011274,2019,0.010942,0.011117
0,Deaths,Indonesia,Percent,0.000007,2018,0.000007,0.000007
0,Deaths,Indonesia,Rate,0.004788,2018,0.004977,0.0045
0,Deaths,Japan,Percent,0.000021,2019,0.00002,0.000018
0,Deaths,Japan,Rate,0.023659,2019,0.023528,0.021168
0,Deaths,Singapore,Number,0.427567,2020,0.410889,0.409947
0,Deaths,Singapore,Percent,0.000018,2020,0.000017,0.000018
0,Deaths,Singapore,Rate,0.007521,2020,0.007228,0.007211
0,Deaths,Hungary,Percent,0.000016,2019,0.000015,0.000016
0,Deaths,Hungary,Rate,0.022416,2019,0.021043,0.022511
0,Deaths,Greenland,Number,0.012064,2020,0.01199,0.011708
0,Deaths,Greenland,Percent,0.00002,2020,0.00002,0.000019
0,Deaths,Greenland,Rate,0.021511,2020,0.02138,0.020877
0,Deaths,Netherlands,Percent,0.000019,2020,0.000018,0.000019
0,Deaths,Netherlands,Rate,0.019916,2020,0.019063,0.019153
0,Deaths,Latvia,Number,0.396663,2017,0.375529,0.396411
0,Deaths,Latvia,Percent,0.000013,2017,0.000012,0.000013
0,Deaths,Latvia,Rate,0.019725,2017,0.018674,0.019713
0,Deaths,'Sri Lanka',Percent,0.000008,2020,0.000008,0.000008
0,Deaths,'Sri Lanka',Rate,0.005546,2020,0.005445,0.005328
0,Deaths,Senegal,Number,0.361208,2018,0.377792,0.325173
0,Deaths,Senegal,Percent,0.000003,2018,0.000003,0.000003
0,Deaths,Senegal,Rate,0.002267,2018,0.002371,0.002041
0,Deaths,Kenya,Percent,0.000005,2017,0.000005,0.000005
0,Deaths,Kenya,Rate,0.003595,2017,0.003684,0.003293
0,Deaths,Finland,Number,0.943636,2018,0.91293,0.897704
0,Deaths,Finland,Percent,0.000016,2018,0.000016,0.000016
0,Deaths,Finland,Rate,0.017084,2018,0.016528,0.016253
0,Deaths,Grenada,Number,0.012825,2018,0.012615,0.012456
0,Deaths,Grenada,Percent,0.000012,2018,0.000012,0.000012
0,Deaths,Grenada,Rate,0.01128,2018,0.011095,0.010955
0,Deaths,'United States of America',Percent,0.000015,2019,0.000014,0.000014
0,Deaths,'United States of America',Rate,0.013518,2019,0.013033,0.012969
0,Deaths,Lesotho,Number,0.085392,2020,0.096268,0.073739
0,Deaths,Lesotho,Percent,0.000003,2020,0.000003,0.000002
0,Deaths,Lesotho,Rate,0.00449,2020,0.005061,0.003877
0,Deaths,Colombia,Percent,0.000012,2018,0.000011,0.000012
0,Deaths,Colombia,Rate,0.006586,2018,0.00624,0.006526
0,Deaths,Italy,Percent,0.000018,2018,0.000018,0.000017
0,Deaths,Italy,Rate,0.02054,2018,0.020152,0.019154
0,Deaths,Guatemala,Number,0.677235,2019,0.645989,0.681634
0,Deaths,Guatemala,Percent,0.000007,2019,0.000007,0.000007
0,Deaths,Guatemala,Rate,0.004306,2019,0.004107,0.004334
0,Deaths,Eswatini,Number,0.050807,2017,0.061335,0.040308
0,Deaths,Eswatini,Percent,0.000003,2017,0.000004,0.000002
0,Deaths,Eswatini,Rate,0.004457,2017,0.005381,0.003536
0,Deaths,Peru,Percent,0.000007,2020,0.000007,0.000007
0,Deaths,Peru,Rate,0.006858,2020,0.006611,0.006643
0,Deaths,Sweden,Percent,0.000018,2017,0.000017,0.000017
0,Deaths,Sweden,Rate,0.017171,2017,0.016584,0.016269
0,Deaths,Liberia,Number,0.168655,2018,0.183144,0.143737
0,Deaths,Liberia,Percent,0.000003,2018,0.000003,0.000002
0,Deaths,Liberia,Rate,0.003327,2018,0.003613,0.002835
0,Deaths,'United States Virgin Islands',Number,0.012225,2019,0.012077,0.011841
0,Deaths,'United States Virgin Islands',Percent,0.000013,2019,0.000013,0.000013
0,Deaths,'United States Virgin Islands',Rate,0.01335,2019,0.013188,0.012931
0,Deaths,Jordan,Number,0.383785,2017,0.378227,0.369159
0,Deaths,Jordan,Percent,0.000011,2017,0.000011,0.000011
0,Deaths,Jordan,Rate,0.003608,2017,0.003556,0.003471
0,Deaths,Afghanistan,Number,0.546182,2017,0.602162,0.441759
0,Deaths,Afghanistan,Percent,0.000002,2017,0.000002,0.000001
0,Deaths,Afghanistan,Rate,0.001729,2017,0.001907,0.001399
0,Deaths,Qatar,Number,0.028795,2019,0.030943,0.027257
0,Deaths,Qatar,Percent,0.00001,2019,0.00001,0.000009
0,Deaths,Qatar,Rate,0.001018,2019,0.001094,0.000964
0,Deaths,Mauritius,Number,0.09536,2018,0.09086,0.095394
0,Deaths,Mauritius,Percent,0.000008,2018,0.000007,0.000008
0,Deaths,Mauritius,Rate,0.007442,2018,0.00709,0.007444
0,Deaths,Cuba,Percent,0.000016,2017,0.000015,0.000016
0,Deaths,Cuba,Rate,0.015365,2017,0.014545,0.015298
0,Deaths,Algeria,Percent,0.000005,2020,0.000005,0.000004
0,Deaths,Algeria,Rate,0.003323,2020,0.003651,0.002805
0,Deaths,Barbados,Number,0.045736,2018,0.044802,0.044563
0,Deaths,Barbados,Percent,0.000015,2018,0.000014,0.000015
0,Deaths,Barbados,Rate,0.015304,2018,0.014992,0.014912
0,Deaths,'Côte dIvoire',Number,0.814674,2019,0.86154,0.741985
0,Deaths,'Côte dIvoire',Percent,0.000003,2019,0.000003,0.000003
0,Deaths,'Côte dIvoire',Rate,0.002824,2019,0.002986,0.002572
0,Deaths,Guam,Number,0.013391,2020,0.01296,0.013269
0,Deaths,Guam,Percent,0.000011,2020,0.00001,0.000011
0,Deaths,Guam,Rate,0.008365,2020,0.008096,0.008289
0,Deaths,Nigeria,Percent,0.000002,2017,0.000002,0.000002
0,Deaths,Nigeria,Rate,0.00267,2017,0.002892,0.002314
0,Deaths,Philippines,Percent,0.000006,2019,0.000006,0.000006
0,Deaths,Philippines,Rate,0.004273,2019,0.004201,0.004183
0,Deaths,'Micronesia (Federated States of)',Number,0.006242,2018,0.006302,0.005885
0,Deaths,'Micronesia (Federated States of)',Percent,0.000007,2018,0.000007,0.000006
0,Deaths,'Micronesia (Federated States of)',Rate,0.006004,2018,0.006061,0.00566
0,Deaths,'Lao Peoples Democratic Republic',Number,0.309669,2018,0.323522,0.284866
0,Deaths,'Lao Peoples Democratic Republic',Percent,0.000005,2018,0.000005,0.000004
0,Deaths,'Lao Peoples Democratic Republic',Rate,0.004372,2018,0.004567,0.004021
0,Deaths,Austria,Percent,0.000017,2017,0.000016,0.000016
0,Deaths,Austria,Rate,0.016825,2017,0.016106,0.016258
0,Deaths,Lebanon,Number,0.496578,2019,0.491594,0.477286
0,Deaths,Lebanon,Percent,0.000015,2019,0.000014,0.000015
0,Deaths,Lebanon,Rate,0.008706,2019,0.008618,0.008368
0,Deaths,'Russian Federation',Percent,0.000011,2019,0.00001,0.000011
0,Deaths,'Russian Federation',Rate,0.014063,2019,0.013279,0.014124
0,Deaths,Monaco,Number,0.014575,2018,0.01594,0.012909
0,Deaths,Monaco,Percent,0.000027,2018,0.000029,0.000024
0,Deaths,Monaco,Rate,0.038336,2018,0.041928,0.033955
0,Deaths,Andorra,Number,0.012954,2020,0.012985,0.012129
0,Deaths,Andorra,Percent,0.000019,2020,0.000019,0.000018
0,Deaths,Andorra,Rate,0.015631,2020,0.015669,0.014636
0,Deaths,Guyana,Number,0.040336,2017,0.039098,0.039706
0,Deaths,Guyana,Percent,0.000006,2017,0.000006,0.000006
0,Deaths,Guyana,Rate,0.005161,2017,0.005002,0.00508
0,Deaths,Mozambique,Number,0.557654,2018,0.577909,0.51213
0,Deaths,Mozambique,Percent,0.000001,2018,0.000001,0.000001
0,Deaths,Mozambique,Rate,0.00192,2018,0.001989,0.001763
0,Deaths,Bahrain,Number,0.045538,2020,0.045858,0.042778
0,Deaths,Bahrain,Percent,0.000009,2020,0.000009,0.000009
0,Deaths,Bahrain,Rate,0.002987,2020,0.003007,0.002806
0,Deaths,Slovakia,Number,0.981314,2020,0.942951,0.971804
0,Deaths,Slovakia,Percent,0.000016,2020,0.000015,0.000016
0,Deaths,Slovakia,Rate,0.018007,2020,0.017303,0.017833
0,Deaths,Nicaragua,Number,0.275221,2018,0.279982,0.268813
0,Deaths,Nicaragua,Percent,0.000008,2018,0.000008,0.000008
0,Deaths,Nicaragua,Rate,0.004274,2018,0.004348,0.004175
0,Deaths,Yemen,Number,0.664732,2017,0.740651,0.538054
0,Deaths,Yemen,Percent,0.000003,2017,0.000004,0.000003
0,Deaths,Yemen,Rate,0.002149,2017,0.002395,0.00174
0,Deaths,Uzbekistan,Percent,0.000005,2019,0.000005,0.000006
0,Deaths,Uzbekistan,Rate,0.003709,2019,0.003497,0.003767
0,Deaths,'Marshall Islands',Number,0.002906,2019,0.003101,0.002589
0,Deaths,'Marshall Islands',Percent,0.000007,2019,0.000007,0.000006
0,Deaths,'Marshall Islands',Rate,0.006318,2019,0.006742,0.005628
0,Deaths,'Antigua and Barbuda',Number,0.007818,2017,0.007613,0.007691
0,Deaths,'Antigua and Barbuda',Percent,0.000013,2017,0.000012,0.000013
0,Deaths,'Antigua and Barbuda',Rate,0.008735,2017,0.008507,0.008593
0,Deaths,'Viet Nam',Percent,0.000009,2017,0.000009,0.000009
0,Deaths,'Viet Nam',Rate,0.006289,2017,0.006454,0.005837
0,Deaths,'American Samoa',Number,0.003852,2019,0.003921,0.003589
0,Deaths,'American Samoa',Percent,0.00001,2019,0.00001,0.000009
0,Deaths,'American Samoa',Rate,0.00748,2019,0.007615,0.00697
0,Deaths,Suriname,Number,0.043981,2019,0.043237,0.041771
0,Deaths,Suriname,Percent,0.000009,2019,0.000009,0.000009
0,Deaths,Suriname,Rate,0.007538,2019,0.00741,0.007159
0,Deaths,Armenia,Number,0.368171,2019,0.35094,0.364889
0,Deaths,Armenia,Percent,0.000013,2019,0.000012,0.000013
0,Deaths,Armenia,Rate,0.01204,2019,0.011477,0.011933
0,Deaths,'Saint Lucia',Number,0.015668,2018,0.015362,0.015336
0,Deaths,'Saint Lucia',Percent,0.000012,2018,0.000012,0.000012
0,Deaths,'Saint Lucia',Rate,0.008885,2018,0.008712,0.008697
0,Deaths,Comoros,Number,0.020911,2020,0.022169,0.017919
0,Deaths,Comoros,Percent,0.000004,2020,0.000004,0.000003
0,Deaths,Comoros,Rate,0.002513,2020,0.002664,0.002154
0,Deaths,'Sierra Leone',Number,0.23587,2018,0.243474,0.214413
0,Deaths,'Sierra Leone',Percent,0.000002,2018,0.000002,0.000002
0,Deaths,'Sierra Leone',Rate,0.003093,2018,0.003192,0.002811
0,Deaths,Congo,Number,0.1698,2017,0.180904,0.150094
0,Deaths,Congo,Percent,0.000003,2017,0.000004,0.000003
0,Deaths,Congo,Rate,0.003211,2017,0.003421,0.002839
0,Deaths,Benin,Number,0.262693,2018,0.276625,0.23426
0,Deaths,Benin,Percent,0.000002,2018,0.000002,0.000002
0,Deaths,Benin,Rate,0.002143,2018,0.002257,0.001911
0,Deaths,Burundi,Number,0.428784,2020,0.456594,0.382692
0,Deaths,Burundi,Percent,0.000003,2020,0.000003,0.000003
0,Deaths,Burundi,Rate,0.003309,2020,0.003524,0.002953
0,Deaths,'Republic of Korea',Percent,0.00002,2019,0.00002,0.000019
0,Deaths,'Republic of Korea',Rate,0.01212,2019,0.012049,0.011347
0,Deaths,Ukraine,Percent,0.000008,2019,0.000008,0.000008
0,Deaths,Ukraine,Rate,0.012509,2019,0.011885,0.012613
0,Deaths,Ireland,Number,0.630924,2017,0.606261,0.610437
0,Deaths,Ireland,Percent,0.000019,2017,0.000018,0.000019
0,Deaths,Ireland,Rate,0.012799,2017,0.012298,0.012383
0,Deaths,Zimbabwe,Number,0.523018,2017,0.561947,0.457672
0,Deaths,Zimbabwe,Percent,0.000003,2017,0.000004,0.000003
0,Deaths,Zimbabwe,Rate,0.003549,2017,0.003813,0.003106
0,Deaths,Malaysia,Percent,0.000009,2018,0.000009,0.000009
0,Deaths,Malaysia,Rate,0.005578,2018,0.0054,0.005491
0,Deaths,Paraguay,Number,0.446804,2019,0.434887,0.418049
0,Deaths,Paraguay,Percent,0.00001,2019,0.00001,0.00001
0,Deaths,Paraguay,Rate,0.007159,2019,0.006968,0.006699
0,Deaths,Haiti,Number,0.54168,2017,0.573993,0.495787
0,Deaths,Haiti,Percent,0.000004,2017,0.000004,0.000004
0,Deaths,Haiti,Rate,0.004519,2017,0.004788,0.004136
0,Deaths,Libya,Number,0.345796,2019,0.365964,0.302257
0,Deaths,Libya,Percent,0.000009,2019,0.000009,0.000008
0,Deaths,Libya,Rate,0.004857,2019,0.00514,0.004245
0,Deaths,Bahamas,Number,0.038058,2017,0.036486,0.038019
0,Deaths,Bahamas,Percent,0.000013,2017,0.000012,0.000013
0,Deaths,Bahamas,Rate,0.009703,2017,0.009302,0.009693
0,Deaths,Mali,Number,0.696555,2018,0.718715,0.640397
0,Deaths,Mali,Percent,0.000003,2018,0.000003,0.000003
0,Deaths,Mali,Rate,0.003352,2018,0.003459,0.003082
0,Deaths,'Trinidad and Tobago',Number,0.141114,2019,0.136435,0.13996
0,Deaths,'Trinidad and Tobago',Percent,0.000011,2019,0.00001,0.000011
0,Deaths,'Trinidad and Tobago',Rate,0.0101,2019,0.009765,0.010018
0,Deaths,Guinea,Number,0.346306,2017,0.363674,0.311199
0,Deaths,Guinea,Percent,0.000002,2017,0.000002,0.000002
0,Deaths,Guinea,Rate,0.002861,2017,0.003004,0.002571
0,Deaths,Norway,Number,0.80643,2020,0.778265,0.766464
0,Deaths,Norway,Percent,0.000019,2020,0.000018,0.000018
0,Deaths,Norway,Rate,0.015032,2020,0.014507,0.014287
0,Deaths,Gambia,Number,0.04185,2019,0.04617,0.036726
0,Deaths,Gambia,Percent,0.000002,2019,0.000002,0.000001
0,Deaths,Gambia,Rate,0.001822,2019,0.00201,0.001599
0,Deaths,'North Macedonia',Number,0.32356,2019,0.311174,0.31421
0,Deaths,'North Macedonia',Percent,0.000014,2019,0.000014,0.000014
0,Deaths,'North Macedonia',Rate,0.016852,2019,0.016207,0.016365
0,Deaths,Austria,Percent,0.000016,2020,0.000015,0.000015
0,Deaths,Austria,Rate,0.017087,2020,0.016316,0.016558
0,Deaths,Yemen,Number,0.755921,2020,0.827612,0.620914
0,Deaths,Yemen,Percent,0.000003,2020,0.000003,0.000003
0,Deaths,Yemen,Rate,0.002274,2020,0.00249,0.001868
0,Deaths,'Saudi Arabia',Number,0.790472,2019,0.865165,0.740436
0,Deaths,'Saudi Arabia',Percent,0.000007,2019,0.000008,0.000007
0,Deaths,'Saudi Arabia',Rate,0.002427,2019,0.002657,0.002274
0,Deaths,Lithuania,Number,0.561641,2017,0.530463,0.560872
0,Deaths,Lithuania,Percent,0.000013,2017,0.000012,0.000013
0,Deaths,Lithuania,Rate,0.019613,2017,0.018525,0.019587
0,Deaths,Kazakhstan,Percent,0.000007,2020,0.000006,0.000007
0,Deaths,Kazakhstan,Rate,0.006597,2020,0.006253,0.006603
0,Deaths,Thailand,Percent,0.000014,2020,0.000015,0.000014
0,Deaths,Thailand,Rate,0.012224,2020,0.012721,0.011731
0,Deaths,Bangladesh,Percent,0.000006,2017,0.000006,0.000006
0,Deaths,Bangladesh,Rate,0.004623,2017,0.004797,0.00431
0,Deaths,Uganda,Percent,0.000005,2017,0.000005,0.000004
0,Deaths,Uganda,Rate,0.004192,2017,0.00435,0.003807
0,Deaths,'Costa Rica',Number,0.373566,2018,0.356374,0.368239
0,Deaths,'Costa Rica',Percent,0.000015,2018,0.000014,0.000015
0,Deaths,'Costa Rica',Rate,0.007481,2018,0.007136,0.007374
0,Deaths,Sudan,Percent,0.000004,2017,0.000005,0.000004
0,Deaths,Sudan,Rate,0.003473,2017,0.003867,0.0029
0,Deaths,Bermuda,Number,0.010871,2019,0.010474,0.010426
0,Deaths,Bermuda,Percent,0.000019,2019,0.000018,0.000018
0,Deaths,Bermuda,Rate,0.016847,2019,0.016231,0.016157
0,Deaths,Barbados,Number,0.04949,2020,0.048054,0.04849
0,Deaths,Barbados,Percent,0.000015,2020,0.000014,0.000014
0,Deaths,Barbados,Rate,0.016465,2020,0.015987,0.016132
0,Deaths,Switzerland,Percent,0.000018,2017,0.000018,0.000017
0,Deaths,Switzerland,Rate,0.015184,2017,0.01471,0.014309
0,Deaths,Romania,Percent,0.000013,2019,0.000012,0.000013
0,Deaths,Romania,Rate,0.017833,2019,0.016817,0.017979
0,Deaths,Dominica,Number,0.008856,2017,0.008954,0.008437
0,Deaths,Dominica,Percent,0.000012,2017,0.000012,0.000012
0,Deaths,Dominica,Rate,0.01262,2017,0.01276,0.012023
0,Deaths,Slovenia,Number,0.420978,2020,0.399267,0.411683
0,Deaths,Slovenia,Percent,0.000016,2020,0.000015,0.000016
0,Deaths,Slovenia,Rate,0.0201,2020,0.019063,0.019656
0,Deaths,Morocco,Percent,0.000005,2019,0.000006,0.000005
0,Deaths,Morocco,Rate,0.004474,2019,0.004972,0.003821
0,Deaths,Afghanistan,Number,0.622956,2020,0.68138,0.508186
0,Deaths,Afghanistan,Percent,0.000002,2020,0.000002,0.000001
0,Deaths,Afghanistan,Rate,0.001805,2020,0.001974,0.001472
0,Deaths,France,Percent,0.000021,2018,0.00002,0.00002
0,Deaths,France,Rate,0.019011,2018,0.018369,0.01794
0,Deaths,Chile,Percent,0.000017,2018,0.000016,0.000017
0,Deaths,Chile,Rate,0.0106,2018,0.010053,0.010406
0,Deaths,Maldives,Number,0.013579,2018,0.013483,0.012912
0,Deaths,Maldives,Percent,0.000007,2018,0.000007,0.000007
0,Deaths,Maldives,Rate,0.00286,2018,0.00284,0.00272
0,Deaths,Brazil,Percent,0.000012,2018,0.000011,0.000012
0,Deaths,Brazil,Rate,0.008073,2018,0.007659,0.007914
0,Deaths,Nauru,Number,0.000753,2018,0.000834,0.000658
0,Deaths,Nauru,Percent,0.000007,2018,0.000007,0.000006
0,Deaths,Nauru,Rate,0.006599,2018,0.007309,0.005769
0,Deaths,Algeria,Percent,0.000005,2019,0.000006,0.000005
0,Deaths,Algeria,Rate,0.003361,2019,0.003739,0.002831
0,Deaths,Panama,Number,0.251269,2018,0.240042,0.247318
0,Deaths,Panama,Percent,0.000011,2018,0.000011,0.000012
0,Deaths,Panama,Rate,0.006519,2018,0.006227,0.006416
0,Deaths,Pakistan,Percent,0.000006,2019,0.000006,0.000006
0,Deaths,Pakistan,Rate,0.004134,2019,0.004215,0.003892
0,Deaths,Australia,Percent,0.00002,2020,0.000019,0.000019
0,Deaths,Australia,Rate,0.013209,2020,0.012736,0.012454
0,Deaths,'Viet Nam',Percent,0.000009,2018,0.000009,0.000009
0,Deaths,'Viet Nam',Rate,0.006479,2018,0.006645,0.00608
0,Deaths,'Papua New Guinea',Number,0.324727,2018,0.342894,0.290633
0,Deaths,'Papua New Guinea',Percent,0.000004,2018,0.000004,0.000004
0,Deaths,'Papua New Guinea',Rate,0.003373,2018,0.003561,0.003019
0,Deaths,Fiji,Number,0.057659,2020,0.058827,0.054291
0,Deaths,Fiji,Percent,0.000006,2020,0.000006,0.000006
0,Deaths,Fiji,Rate,0.006222,2020,0.006348,0.005859
0,Deaths,Guinea-Bissau,Number,0.047966,2017,0.051032,0.042195
0,Deaths,Guinea-Bissau,Percent,0.000002,2017,0.000002,0.000002
0,Deaths,Guinea-Bissau,Rate,0.002539,2017,0.002702,0.002234
0,Deaths,'American Samoa',Number,0.003805,2018,0.003872,0.003554
0,Deaths,'American Samoa',Percent,0.00001,2018,0.00001,0.000009
0,Deaths,'American Samoa',Rate,0.007298,2018,0.007425,0.006816
0,Deaths,Zambia,Number,0.581782,2017,0.613705,0.533703
0,Deaths,Zambia,Percent,0.000003,2017,0.000003,0.000003
0,Deaths,Zambia,Rate,0.003386,2017,0.003572,0.003106
0,Deaths,Belgium,Percent,0.000018,2017,0.000018,0.000018
0,Deaths,Belgium,Rate,0.01884,2017,0.018295,0.01771
0,Deaths,Azerbaijan,Number,0.697681,2019,0.73342,0.652963
0,Deaths,Azerbaijan,Percent,0.000009,2019,0.00001,0.000009
0,Deaths,Azerbaijan,Rate,0.006777,2019,0.007124,0.006343
0,Deaths,'Saint Vincent and the Grenadines',Number,0.012635,2018,0.012273,0.012352
0,Deaths,'Saint Vincent and the Grenadines',Percent,0.000012,2018,0.000012,0.000012
0,Deaths,'Saint Vincent and the Grenadines',Rate,0.010914,2018,0.010601,0.010669
0,Deaths,Colombia,Percent,0.000009,2020,0.000009,0.00001
0,Deaths,Colombia,Rate,0.006316,2020,0.005951,0.006337
0,Deaths,Singapore,Number,0.425222,2019,0.409049,0.407981
0,Deaths,Singapore,Percent,0.000018,2019,0.000017,0.000018
0,Deaths,Singapore,Rate,0.007456,2019,0.007172,0.007154
0,Deaths,Ghana,Number,0.897309,2019,0.92258,0.836319
0,Deaths,Ghana,Percent,0.000003,2019,0.000003,0.000003
0,Deaths,Ghana,Rate,0.002895,2019,0.002976,0.002698
0,Deaths,Kyrgyzstan,Number,0.220718,2020,0.207805,0.224801
0,Deaths,Kyrgyzstan,Percent,0.000004,2020,0.000004,0.000005
0,Deaths,Kyrgyzstan,Rate,0.003196,2020,0.003009,0.003255
0,Deaths,Monaco,Number,0.014882,2019,0.016312,0.012875
0,Deaths,Monaco,Percent,0.000028,2019,0.00003,0.000025
0,Deaths,Monaco,Rate,0.038853,2019,0.042584,0.033611
0,Deaths,Israel,Number,0.873522,2017,0.84025,0.831147
0,Deaths,Israel,Percent,0.000019,2017,0.000018,0.000018
0,Deaths,Israel,Rate,0.009661,2017,0.009293,0.009193
0,Deaths,Djibouti,Number,0.052413,2020,0.055626,0.047505
0,Deaths,Djibouti,Percent,0.000005,2020,0.000005,0.000005
0,Deaths,Djibouti,Rate,0.004086,2020,0.004337,0.003704
0,Deaths,Bhutan,Number,0.030688,2017,0.032582,0.027601
0,Deaths,Bhutan,Percent,0.000006,2017,0.000006,0.000005
0,Deaths,Bhutan,Rate,0.004057,2017,0.004307,0.003649
0,Deaths,'Burkina Faso',Number,0.476502,2018,0.49048,0.435912
0,Deaths,'Burkina Faso',Percent,0.000002,2018,0.000002,0.000002
0,Deaths,'Burkina Faso',Rate,0.002259,2018,0.002325,0.002067
0,Deaths,Luxembourg,Number,0.081895,2019,0.078753,0.079893
0,Deaths,Luxembourg,Percent,0.000019,2019,0.000018,0.000019
0,Deaths,Luxembourg,Rate,0.013338,2019,0.012826,0.013012
0,Deaths,Portugal,Percent,0.000016,2020,0.000015,0.000015
0,Deaths,Portugal,Rate,0.019682,2020,0.018906,0.018932
0,Deaths,Barbados,Number,0.044468,2017,0.04322,0.043398
0,Deaths,Barbados,Percent,0.000015,2017,0.000014,0.000015
0,Deaths,Barbados,Rate,0.014939,2017,0.01452,0.01458
0,Deaths,Montenegro,Number,0.10857,2021,0.10722,0.101004
0,Deaths,Montenegro,Percent,0.00001,2021,0.000009,0.000009
0,Deaths,Montenegro,Rate,0.016639,2021,0.016432,0.015479
0,Deaths,'Democratic Peoples Republic of Korea',Percent,0.00001,2017,0.000011,0.000009
0,Deaths,'Democratic Peoples Republic of Korea',Rate,0.008704,2017,0.009313,0.0078
0,Deaths,Oman,Number,0.082528,2018,0.0835,0.077808
0,Deaths,Oman,Percent,0.000006,2018,0.000006,0.000006
0,Deaths,Oman,Rate,0.001977,2018,0.002,0.001864
0,Deaths,Rwanda,Number,0.568368,2018,0.591952,0.517172
0,Deaths,Rwanda,Percent,0.000005,2018,0.000006,0.000005
0,Deaths,Rwanda,Rate,0.004516,2018,0.004703,0.004109
0,Deaths,Belarus,Percent,0.00001,2020,0.000009,0.00001
0,Deaths,Belarus,Rate,0.013988,2020,0.013302,0.013933
0,Deaths,Samoa,Number,0.006254,2018,0.006951,0.005399
0,Deaths,Samoa,Percent,0.000004,2018,0.000004,0.000004
0,Deaths,Samoa,Rate,0.003017,2018,0.003354,0.002605
0,Deaths,Montenegro,Number,0.095957,2019,0.095766,0.088805
0,Deaths,Montenegro,Percent,0.000016,2019,0.000015,0.000014
0,Deaths,Montenegro,Rate,0.015082,2019,0.015052,0.013958
0,Deaths,'El Salvador',Number,0.42913,2018,0.433706,0.419734
0,Deaths,'El Salvador',Percent,0.000009,2018,0.000008,0.000009
0,Deaths,'El Salvador',Rate,0.006943,2018,0.007017,0.006791
0,Deaths,Palestine,Number,0.156742,2019,0.152358,0.149562
0,Deaths,Palestine,Percent,0.00001,2019,0.000009,0.000009
0,Deaths,Palestine,Rate,0.0031,2019,0.003013,0.002958
0,Deaths,Mauritania,Number,0.147081,2018,0.160397,0.126125
0,Deaths,Mauritania,Percent,0.000005,2018,0.000005,0.000004
0,Deaths,Mauritania,Rate,0.003562,2018,0.003884,0.003054
0,Deaths,'Dominican Republic',Number,0.63252,2017,0.626985,0.590627
0,Deaths,'Dominican Republic',Percent,0.000009,2017,0.000008,0.000008
0,Deaths,'Dominican Republic',Rate,0.00597,2017,0.005918,0.005575
0,Deaths,Belgium,Percent,0.000015,2020,0.000014,0.000015
0,Deaths,Belgium,Rate,0.018011,2020,0.017275,0.017339
0,Deaths,'Sao Tome and Principe',Number,0.007938,2017,0.00841,0.007287
0,Deaths,'Sao Tome and Principe',Percent,0.000006,2017,0.000006,0.000005
0,Deaths,'Sao Tome and Principe',Rate,0.003888,2017,0.00412,0.003569
0,Deaths,Bangladesh,Percent,0.000006,2020,0.000006,0.000006
0,Deaths,Bangladesh,Rate,0.005105,2020,0.005352,0.004736
0,Deaths,Mauritania,Number,0.162181,2020,0.175927,0.140482
0,Deaths,Mauritania,Percent,0.000004,2020,0.000005,0.000004
0,Deaths,Mauritania,Rate,0.003753,2020,0.004071,0.003251
0,Deaths,Egypt,Percent,0.000005,2020,0.000005,0.000005
0,Deaths,Egypt,Rate,0.003807,2020,0.003789,0.003619
0,Deaths,Niger,Number,0.461089,2020,0.517063,0.404228
0,Deaths,Niger,Percent,0.000001,2020,0.000001,0.000001
0,Deaths,Niger,Rate,0.001934,2020,0.002168,0.001695
0,Deaths,Cameroon,Number,0.877437,2018,0.900955,0.799613
0,Deaths,Cameroon,Percent,0.000002,2018,0.000002,0.000002
0,Deaths,Cameroon,Rate,0.003008,2018,0.003089,0.002741
0,Deaths,Timor-Leste,Number,0.049897,2020,0.052863,0.044814
0,Deaths,Timor-Leste,Percent,0.000005,2020,0.000005,0.000004
0,Deaths,Timor-Leste,Rate,0.003681,2020,0.0039,0.003306
0,Deaths,'Cabo Verde',Number,0.032573,2018,0.033147,0.030343
0,Deaths,'Cabo Verde',Percent,0.00001,2018,0.00001,0.00001
0,Deaths,'Cabo Verde',Rate,0.006391,2018,0.006504,0.005954
0,Deaths,Uzbekistan,Percent,0.000005,2018,0.000005,0.000006
0,Deaths,Uzbekistan,Rate,0.003723,2018,0.003515,0.003785
0,Deaths,Spain,Percent,0.000018,2017,0.000017,0.000017
0,Deaths,Spain,Rate,0.017062,2017,0.016498,0.016202
0,Deaths,'Sri Lanka',Percent,0.000008,2019,0.000007,0.000008
0,Deaths,'Sri Lanka',Rate,0.005646,2019,0.005544,0.00542
0,Deaths,Türkiye,Percent,0.000013,2019,0.000013,0.000012
0,Deaths,Türkiye,Rate,0.008479,2019,0.008379,0.007929
0,Deaths,'Costa Rica',Number,0.371021,2020,0.351383,0.369473
0,Deaths,'Costa Rica',Percent,0.000013,2020,0.000012,0.000013
0,Deaths,'Costa Rica',Rate,0.007285,2020,0.006899,0.007255
0,Deaths,Armenia,Number,0.360047,2018,0.344787,0.359203
0,Deaths,Armenia,Percent,0.000012,2018,0.000011,0.000012
0,Deaths,Armenia,Rate,0.011758,2018,0.01126,0.011731
0,Deaths,Bahrain,Number,0.044651,2019,0.044823,0.041564
0,Deaths,Bahrain,Percent,0.000011,2019,0.00001,0.00001
0,Deaths,Bahrain,Rate,0.002966,2019,0.002978,0.002761
0,Deaths,Italy,Percent,0.000018,2017,0.000018,0.000017
0,Deaths,Italy,Rate,0.020813,2017,0.020377,0.019405
0,Deaths,Bermuda,Number,0.010427,2018,0.010048,0.00992
0,Deaths,Bermuda,Percent,0.000019,2018,0.000018,0.000018
0,Deaths,Bermuda,Rate,0.016092,2018,0.015507,0.015309
0,Deaths,Paraguay,Number,0.430836,2018,0.418501,0.399741
0,Deaths,Paraguay,Percent,0.00001,2018,0.00001,0.00001
0,Deaths,Paraguay,Rate,0.006938,2018,0.006739,0.006437
0,Deaths,Kiribati,Number,0.003822,2020,0.004117,0.003283
0,Deaths,Kiribati,Percent,0.000005,2020,0.000005,0.000004
0,Deaths,Kiribati,Rate,0.003134,2020,0.003375,0.002692
0,Deaths,Myanmar,Percent,0.000005,2018,0.000005,0.000004
0,Deaths,Myanmar,Rate,0.005295,2018,0.005541,0.004776
0,Deaths,Eritrea,Number,0.322229,2020,0.332916,0.299352
0,Deaths,Eritrea,Percent,0.000005,2020,0.000005,0.000004
0,Deaths,Eritrea,Rate,0.004891,2020,0.005053,0.004544
0,Deaths,'Cook Islands',Number,0.002019,2017,0.002072,0.001875
0,Deaths,'Cook Islands',Percent,0.000012,2017,0.000012,0.000011
0,Deaths,'Cook Islands',Rate,0.011704,2017,0.012011,0.01087
0,Deaths,'United Kingdom',Percent,0.000019,2017,0.000018,0.000019
0,Deaths,'United Kingdom',Rate,0.018502,2017,0.01772,0.017768
0,Deaths,'Syrian Arab Republic',Number,0.566526,2019,0.586661,0.513319
0,Deaths,'Syrian Arab Republic',Percent,0.000005,2019,0.000005,0.000005
0,Deaths,'Syrian Arab Republic',Rate,0.003254,2019,0.00337,0.002948
0,Deaths,Cambodia,Number,0.553984,2017,0.575807,0.512175
0,Deaths,Cambodia,Percent,0.000005,2017,0.000006,0.000005
0,Deaths,Cambodia,Rate,0.003484,2017,0.003621,0.003221
0,Deaths,Namibia,Number,0.103675,2020,0.106566,0.090972
0,Deaths,Namibia,Percent,0.000004,2020,0.000004,0.000003
0,Deaths,Namibia,Rate,0.00373,2020,0.003834,0.003273
0,Deaths,Togo,Number,0.198856,2017,0.21081,0.178306
0,Deaths,Togo,Percent,0.000002,2017,0.000002,0.000002
0,Deaths,Togo,Rate,0.002618,2017,0.002776,0.002348
0,Deaths,Liberia,Number,0.159519,2017,0.170905,0.136027
0,Deaths,Liberia,Percent,0.000003,2017,0.000003,0.000002
0,Deaths,Liberia,Rate,0.003225,2017,0.003455,0.00275
0,Deaths,Spain,Percent,0.000015,2020,0.000015,0.000015
0,Deaths,Spain,Rate,0.017122,2020,0.016426,0.016454
0,Deaths,'Republic of Korea',Percent,0.00002,2021,0.00002,0.000019
0,Deaths,'Republic of Korea',Rate,0.012764,2021,0.01273,0.011956
0,Deaths,Belize,Number,0.018909,2020,0.0182,0.018718
0,Deaths,Belize,Percent,0.000008,2020,0.000007,0.000008
0,Deaths,Belize,Rate,0.004734,2020,0.004556,0.004686
0,Deaths,'Democratic Republic of the Congo',Percent,0.000004,2021,0.000004,0.000003
0,Deaths,'Democratic Republic of the Congo',Rate,0.004254,2021,0.004626,0.003459
0,Deaths,Bhutan,Number,0.034038,2020,0.036479,0.030914
0,Deaths,Bhutan,Percent,0.000006,2020,0.000006,0.000006
0,Deaths,Bhutan,Rate,0.004512,2020,0.004836,0.004098
0,Deaths,'Taiwan (Province of China)',Percent,0.00002,2017,0.000018,0.00002
0,Deaths,'Taiwan (Province of China)',Rate,0.015129,2017,0.014316,0.015037
0,Deaths,Poland,Percent,0.000019,2018,0.000017,0.000018
0,Deaths,Poland,Rate,0.020574,2018,0.019556,0.020346
0,Deaths,Serbia,Percent,0.000015,2019,0.000014,0.000014
0,Deaths,Serbia,Rate,0.020275,2019,0.019711,0.019953
0,Deaths,'Micronesia (Federated States of)',Number,0.006157,2017,0.006209,0.00583
0,Deaths,'Micronesia (Federated States of)',Percent,0.000007,2017,0.000007,0.000006
0,Deaths,'Micronesia (Federated States of)',Rate,0.005915,2017,0.005964,0.005601
0,Deaths,Grenada,Number,0.012534,2017,0.012225,0.012178
0,Deaths,Grenada,Percent,0.000013,2017,0.000012,0.000013
0,Deaths,Grenada,Rate,0.011053,2017,0.01078,0.010738
0,Deaths,Eswatini,Number,0.058584,2020,0.068146,0.047863
0,Deaths,Eswatini,Percent,0.000003,2020,0.000004,0.000003
0,Deaths,Eswatini,Rate,0.005027,2020,0.005847,0.004107
0,Deaths,India,Percent,0.000005,2017,0.000004,0.000005
0,Deaths,India,Rate,0.003921,2017,0.003951,0.003799
0,Deaths,'South Sudan',Number,0.463886,2019,0.480977,0.416749
0,Deaths,'South Sudan',Percent,0.000004,2019,0.000004,0.000004
0,Deaths,'South Sudan',Rate,0.005117,2019,0.005306,0.004597
0,Deaths,'Brunei Darussalam',Number,0.02902,2019,0.028442,0.027648
0,Deaths,'Brunei Darussalam',Percent,0.000016,2019,0.000016,0.000015
0,Deaths,'Brunei Darussalam',Rate,0.006546,2019,0.006416,0.006237
0,Deaths,Greece,Percent,0.000017,2019,0.000016,0.000017
0,Deaths,Greece,Rate,0.021015,2019,0.020199,0.020163
0,Deaths,'El Salvador',Number,0.471596,2020,0.478968,0.451562
0,Deaths,'El Salvador',Percent,0.000008,2020,0.000008,0.000008
0,Deaths,'El Salvador',Rate,0.007617,2020,0.007736,0.007293
0,Deaths,Niue,Number,0.000156,2018,0.000162,0.000144
0,Deaths,Niue,Percent,0.000008,2018,0.000008,0.000007
0,Deaths,Niue,Rate,0.009562,2018,0.009914,0.008816
0,Deaths,'Solomon Islands',Number,0.039355,2018,0.041588,0.035473
0,Deaths,'Solomon Islands',Percent,0.000006,2018,0.000006,0.000005
0,Deaths,'Solomon Islands',Rate,0.005394,2018,0.0057,0.004862
0,Deaths,'Democratic Republic of the Congo',Percent,0.000003,2018,0.000004,0.000003
0,Deaths,'Democratic Republic of the Congo',Rate,0.003867,2018,0.004306,0.003081
0,Deaths,Qatar,Number,0.027277,2018,0.029334,0.025855
0,Deaths,Qatar,Percent,0.000009,2018,0.00001,0.000009
0,Deaths,Qatar,Rate,0.000992,2018,0.001067,0.000941
0,Deaths,Malta,Number,0.067021,2019,0.064817,0.064266
0,Deaths,Malta,Percent,0.000017,2019,0.000016,0.000016
0,Deaths,Malta,Rate,0.013212,2019,0.012778,0.012669
0,Deaths,'South Africa',Percent,0.000005,2020,0.000005,0.000005
0,Deaths,'South Africa',Rate,0.00621,2020,0.006213,0.006002
0,Deaths,China,Percent,0.000015,2020,0.000014,0.000015
0,Deaths,China,Rate,0.010091,2020,0.00983,0.009797
0,Deaths,Nigeria,Percent,0.000002,2020,0.000002,0.000002
0,Deaths,Nigeria,Rate,0.002706,2020,0.002912,0.002384
0,Deaths,Fiji,Number,0.055391,2018,0.055954,0.052361
0,Deaths,Fiji,Percent,0.000006,2018,0.000006,0.000006
0,Deaths,Fiji,Rate,0.006037,2018,0.006099,0.005707
0,Deaths,Guatemala,Number,0.670568,2018,0.64199,0.675514
0,Deaths,Guatemala,Percent,0.000007,2018,0.000007,0.000007
0,Deaths,Guatemala,Rate,0.004323,2018,0.004139,0.004355
0,Deaths,Australia,Percent,0.00002,2019,0.000019,0.000019
0,Deaths,Australia,Rate,0.013788,2019,0.013325,0.013055
0,Deaths,Nauru,Number,0.000789,2019,0.00086,0.000699
0,Deaths,Nauru,Percent,0.000007,2019,0.000007,0.000006
0,Deaths,Nauru,Rate,0.006808,2019,0.00742,0.006025
0,Deaths,Singapore,Number,0.443232,2021,0.425928,0.425905
0,Deaths,Singapore,Percent,0.000017,2021,0.000016,0.000017
0,Deaths,Singapore,Rate,0.007801,2021,0.007496,0.007496
0,Deaths,Mongolia,Number,0.284388,2020,0.276991,0.279859
0,Deaths,Mongolia,Percent,0.000015,2020,0.000015,0.000015
0,Deaths,Mongolia,Rate,0.008623,2020,0.008399,0.008486
0,Deaths,'Venezuela (Bolivarian Republic of)',Percent,0.00001,2018,0.000009,0.00001
0,Deaths,'Venezuela (Bolivarian Republic of)',Rate,0.006927,2018,0.006577,0.006931
0,Deaths,'Bolivia (Plurinational State of)',Number,0.929249,2019,0.954381,0.874464
0,Deaths,'Bolivia (Plurinational State of)',Percent,0.000012,2019,0.000012,0.000011
0,Deaths,'Bolivia (Plurinational State of)',Rate,0.008039,2019,0.008256,0.007565
0,Deaths,Honduras,Number,0.301106,2020,0.305796,0.280984
0,Deaths,Honduras,Percent,0.000004,2020,0.000004,0.000004
0,Deaths,Honduras,Rate,0.002984,2020,0.00303,0.002784
0,Deaths,Estonia,Number,0.236367,2020,0.224694,0.234155
0,Deaths,Estonia,Percent,0.000014,2020,0.000013,0.000014
0,Deaths,Estonia,Rate,0.017799,2020,0.01692,0.017633
0,Deaths,'Iran (Islamic Republic of)',Percent,0.000007,2020,0.000007,0.000007
0,Deaths,'Iran (Islamic Republic of)',Rate,0.005172,2020,0.005121,0.005032
0,Deaths,Germany,Percent,0.000017,2018,0.000016,0.000016
0,Deaths,Germany,Rate,0.021,2018,0.020159,0.020061
0,Deaths,Philippines,Percent,0.000005,2021,0.000005,0.000005
0,Deaths,Philippines,Rate,0.004768,2021,0.004668,0.004699
0,Deaths,Tunisia,Number,0.997284,2019,1,0.957675
0,Deaths,Tunisia,Percent,0.000013,2019,0.000013,0.000013
0,Deaths,Tunisia,Rate,0.008484,2019,0.008507,0.008147
0,Deaths,Egypt,Percent,0.000006,2019,0.000006,0.000006
0,Deaths,Egypt,Rate,0.003773,2019,0.003823,0.003548
0,Deaths,Uruguay,Number,0.652406,2018,0.621143,0.645141
0,Deaths,Uruguay,Percent,0.000018,2018,0.000017,0.000018
0,Deaths,Uruguay,Rate,0.018999,2018,0.018089,0.018788
0,Deaths,'United Arab Emirates',Number,0.136466,2019,0.142816,0.129236
0,Deaths,'United Arab Emirates',Percent,0.000011,2019,0.000012,0.000011
0,Deaths,'United Arab Emirates',Rate,0.001386,2019,0.00145,0.001312
0,Deaths,Netherlands,Percent,0.000022,2019,0.000021,0.000021
0,Deaths,Netherlands,Rate,0.020239,2019,0.019487,0.019202
0,Deaths,Benin,Number,0.255726,2017,0.2691,0.228489
0,Deaths,Benin,Percent,0.000002,2017,0.000002,0.000002
0,Deaths,Benin,Rate,0.002153,2017,0.002265,0.001923
0,Deaths,Indonesia,Percent,0.000007,2017,0.000007,0.000006
0,Deaths,Indonesia,Rate,0.004646,2017,0.004779,0.004388
0,Deaths,Azerbaijan,Number,0.648447,2018,0.683758,0.602154
0,Deaths,Azerbaijan,Percent,0.000009,2018,0.000009,0.000008
0,Deaths,Azerbaijan,Rate,0.00635,2018,0.006695,0.005896
0,Deaths,Suriname,Number,0.042717,2018,0.042017,0.040725
0,Deaths,Suriname,Percent,0.000009,2018,0.000009,0.000009
0,Deaths,Suriname,Rate,0.007368,2018,0.007247,0.007025
0,Deaths,Honduras,Number,0.281221,2017,0.287712,0.259246
0,Deaths,Honduras,Percent,0.000006,2017,0.000006,0.000005
0,Deaths,Honduras,Rate,0.00298,2017,0.003049,0.002747
0,Deaths,Latvia,Number,0.385402,2020,0.364031,0.385556
0,Deaths,Latvia,Percent,0.000012,2020,0.000011,0.000013
0,Deaths,Latvia,Rate,0.019668,2020,0.018578,0.019676
0,Deaths,Cuba,Percent,0.000015,2020,0.000014,0.000016
0,Deaths,Cuba,Rate,0.016184,2020,0.015254,0.016198
0,Deaths,Madagascar,Percent,0.000004,2017,0.000004,0.000004
0,Deaths,Madagascar,Rate,0.004018,2017,0.004133,0.003745
0,Deaths,Thailand,Percent,0.000014,2019,0.000015,0.000014
0,Deaths,Thailand,Rate,0.011872,2019,0.012418,0.01142
0,Deaths,Ecuador,Number,1,2019,0.944985,1
0,Deaths,Ecuador,Percent,0.000011,2019,0.00001,0.000011
0,Deaths,Ecuador,Rate,0.005902,2019,0.005577,0.005902
0,Deaths,Nepal,Number,0.805488,2017,0.835092,0.749387
0,Deaths,Nepal,Percent,0.000004,2017,0.000004,0.000004
0,Deaths,Nepal,Rate,0.002716,2017,0.002815,0.002527
0,Deaths,India,Percent,0.000005,2020,0.000005,0.000005
0,Deaths,India,Rate,0.004287,2020,0.004318,0.004167
0,Deaths,Niue,Number,0.000142,2021,0.000154,0.000126
0,Deaths,Niue,Percent,0.000006,2021,0.000006,0.000005
0,Deaths,Niue,Rate,0.008572,2021,0.009287,0.007597
0,Deaths,Monaco,Number,0.014925,2020,0.015889,0.013463
0,Deaths,Monaco,Percent,0.000026,2020,0.000028,0.000023
0,Deaths,Monaco,Rate,0.03892,2020,0.041435,0.035108
0,Deaths,'United States of America',Percent,0.000012,2021,0.000011,0.000012
0,Deaths,'United States of America',Rate,0.013666,2021,0.013082,0.013253
0,Deaths,'Democratic Peoples Republic of Korea',Percent,0.00001,2020,0.000011,0.000009
0,Deaths,'Democratic Peoples Republic of Korea',Rate,0.009453,2020,0.010162,0.008379
0,Deaths,Chad,Number,0.395566,2018,0.430019,0.351048
0,Deaths,Chad,Percent,0.000001,2018,0.000001,0.000001
0,Deaths,Chad,Rate,0.002478,2018,0.002694,0.002199
0,Deaths,Tajikistan,Number,0.275012,2020,0.298261,0.258924
0,Deaths,Tajikistan,Percent,0.000005,2020,0.000005,0.000005
0,Deaths,Tajikistan,Rate,0.002744,2020,0.002976,0.002584
0,Deaths,Greenland,Number,0.01097,2017,0.010874,0.010631
0,Deaths,Greenland,Percent,0.00002,2017,0.000019,0.00002
0,Deaths,Greenland,Rate,0.019639,2017,0.019468,0.019034
0,Deaths,Slovakia,Number,0.97016,2019,0.926899,0.952029
0,Deaths,Slovakia,Percent,0.000017,2019,0.000016,0.000017
0,Deaths,Slovakia,Rate,0.017808,2019,0.017014,0.017476
0,Deaths,Niue,Number,0.000155,2019,0.000161,0.000142
0,Deaths,Niue,Percent,0.000008,2019,0.000008,0.000007
0,Deaths,Niue,Rate,0.009452,2019,0.009837,0.008661
0,Deaths,Tunisia,Number,0.882945,2021,0.920522,0.851754
0,Deaths,Tunisia,Percent,0.000006,2021,0.000006,0.000006
0,Deaths,Tunisia,Rate,0.007434,2021,0.00775,0.007171
0,Deaths,Poland,Percent,0.000013,2021,0.000012,0.000014
0,Deaths,Poland,Rate,0.019317,2021,0.018191,0.019431
0,Deaths,Uzbekistan,Percent,0.000005,2020,0.000004,0.000005
0,Deaths,Uzbekistan,Rate,0.003733,2020,0.003523,0.003799
0,Deaths,Cambodia,Number,0.630165,2020,0.66235,0.575116
0,Deaths,Cambodia,Percent,0.000006,2020,0.000006,0.000005
0,Deaths,Cambodia,Rate,0.003803,2020,0.003998,0.003471
0,Deaths,'Equatorial Guinea',Number,0.060076,2021,0.065592,0.050203
0,Deaths,'Equatorial Guinea',Percent,0.000004,2021,0.000004,0.000003
0,Deaths,'Equatorial Guinea',Rate,0.0039,2021,0.004258,0.003259
0,Deaths,Zimbabwe,Number,0.55525,2020,0.589403,0.49769
0,Deaths,Zimbabwe,Percent,0.000003,2020,0.000003,0.000003
0,Deaths,Zimbabwe,Rate,0.003618,2020,0.00384,0.003243
0,Deaths,Iraq,Percent,0.000007,2020,0.000007,0.000007
0,Deaths,Iraq,Rate,0.005069,2020,0.005103,0.00483
0,Deaths,Senegal,Number,0.358033,2017,0.370448,0.324211
0,Deaths,Senegal,Percent,0.000003,2017,0.000003,0.000003
0,Deaths,Senegal,Rate,0.002322,2017,0.002402,0.002103
0,Deaths,'Marshall Islands',Number,0.003016,2020,0.00323,0.002713
0,Deaths,'Marshall Islands',Percent,0.000007,2020,0.000007,0.000006
0,Deaths,'Marshall Islands',Rate,0.00673,2020,0.007206,0.006052
0,Deaths,Kuwait,Number,0.085689,2018,0.081964,0.084955
0,Deaths,Kuwait,Percent,0.00001,2018,0.000009,0.00001
0,Deaths,Kuwait,Rate,0.002086,2018,0.001995,0.002068
0,Deaths,Albania,Number,0.309238,2019,0.309521,0.293563
0,Deaths,Albania,Percent,0.000013,2019,0.000012,0.000012
0,Deaths,Albania,Rate,0.011843,2019,0.011854,0.011243
0,Deaths,'New Zealand',Number,0.681477,2019,0.655475,0.645719
0,Deaths,'New Zealand',Percent,0.000019,2019,0.000018,0.000018
0,Deaths,'New Zealand',Rate,0.013719,2019,0.013195,0.012999
0,Deaths,Tonga,Number,0.007388,2018,0.00777,0.006675
0,Deaths,Tonga,Percent,0.00001,2018,0.00001,0.000009
0,Deaths,Tonga,Rate,0.007108,2018,0.007476,0.006422
0,Deaths,'Burkina Faso',Number,0.469414,2017,0.479172,0.425702
0,Deaths,'Burkina Faso',Percent,0.000002,2017,0.000002,0.000002
0,Deaths,'Burkina Faso',Rate,0.002288,2017,0.002335,0.002075
0,Deaths,Sweden,Percent,0.000016,2020,0.000016,0.000016
0,Deaths,Sweden,Rate,0.016577,2020,0.015964,0.01573
0,Deaths,'Papua New Guinea',Number,0.314829,2017,0.331755,0.280382
0,Deaths,'Papua New Guinea',Percent,0.000004,2017,0.000004,0.000004
0,Deaths,'Papua New Guinea',Rate,0.003368,2017,0.003549,0.002999
0,Deaths,Iceland,Number,0.046207,2019,0.045,0.043698
0,Deaths,Iceland,Percent,0.000019,2019,0.000019,0.000019
0,Deaths,Iceland,Rate,0.012958,2019,0.012619,0.012254
0,Deaths,'Sao Tome and Principe',Number,0.00951,2020,0.010932,0.007308
0,Deaths,'Sao Tome and Principe',Percent,0.000006,2020,0.000006,0.000004
0,Deaths,'Sao Tome and Principe',Rate,0.004448,2020,0.005112,0.003418
0,Deaths,'Saudi Arabia',Number,0.766112,2018,0.83069,0.719235
0,Deaths,'Saudi Arabia',Percent,0.000007,2018,0.000008,0.000007
0,Deaths,'Saudi Arabia',Rate,0.002367,2018,0.002567,0.002223
0,Deaths,Azerbaijan,Number,0.736822,2021,0.77131,0.696657
0,Deaths,Azerbaijan,Percent,0.000008,2021,0.000008,0.000007
0,Deaths,Azerbaijan,Rate,0.007077,2021,0.007409,0.006692
0,Deaths,Ethiopia,Percent,0.000006,2020,0.000006,0.000006
0,Deaths,Ethiopia,Rate,0.004984,2020,0.005167,0.00467
0,Deaths,Slovenia,Number,0.418512,2019,0.400734,0.405026
0,Deaths,Slovenia,Percent,0.000019,2019,0.000018,0.000019
0,Deaths,Slovenia,Rate,0.020076,2019,0.019223,0.01943
0,Deaths,Türkiye,Percent,0.000011,2021,0.000011,0.00001
0,Deaths,Türkiye,Rate,0.009303,2021,0.00919,0.008626
0,Deaths,'Sri Lanka',Percent,0.000007,2021,0.000006,0.000007
0,Deaths,'Sri Lanka',Rate,0.005639,2021,0.005548,0.005448
0,Deaths,'Iran (Islamic Republic of)',Percent,0.000011,2019,0.000011,0.000011
0,Deaths,'Iran (Islamic Republic of)',Rate,0.00535,2019,0.005414,0.005112
0,Deaths,Cyprus,Number,0.162604,2017,0.163838,0.15244
0,Deaths,Cyprus,Percent,0.000016,2017,0.000016,0.000015
0,Deaths,Cyprus,Rate,0.012672,2017,0.012768,0.01188
0,Deaths,Dominica,Number,0.009603,2020,0.009772,0.009065
0,Deaths,Dominica,Percent,0.000014,2020,0.000014,0.000013
0,Deaths,Dominica,Rate,0.013757,2020,0.013999,0.012986
0,Deaths,Lithuania,Number,0.558474,2020,0.525071,0.560039
0,Deaths,Lithuania,Percent,0.000012,2020,0.000011,0.000012
0,Deaths,Lithuania,Rate,0.019776,2020,0.018593,0.019832
0,Deaths,Nepal,Number,0.904868,2020,0.9408,0.838762
0,Deaths,Nepal,Percent,0.000004,2020,0.000004,0.000004
0,Deaths,Nepal,Rate,0.002976,2020,0.003094,0.002759
0,Deaths,'United States Virgin Islands',Number,0.012158,2018,0.011968,0.011749
0,Deaths,'United States Virgin Islands',Percent,0.000014,2018,0.000013,0.000013
0,Deaths,'United States Virgin Islands',Rate,0.012986,2018,0.012783,0.012549
0,Deaths,Georgia,Number,0.602358,2019,0.575834,0.595947
0,Deaths,Georgia,Percent,0.000012,2019,0.000011,0.000012
0,Deaths,Georgia,Rate,0.016251,2019,0.015535,0.016078
0,Deaths,Gambia,Number,0.044275,2021,0.04816,0.03958
0,Deaths,Gambia,Percent,0.000001,2021,0.000001,0.000001
0,Deaths,Gambia,Rate,0.001838,2021,0.001999,0.001643
0,Deaths,'Democratic Republic of the Congo',Percent,0.000004,2019,0.000004,0.000003
0,Deaths,'Democratic Republic of the Congo',Rate,0.003982,2019,0.004461,0.0032
0,Deaths,'Taiwan (Province of China)',Percent,0.00002,2020,0.000018,0.000019
0,Deaths,'Taiwan (Province of China)',Rate,0.0152,2020,0.014509,0.01494
0,Deaths,Angola,Number,0.93308,2019,0.981723,0.838998
0,Deaths,Angola,Percent,0.000003,2019,0.000003,0.000003
0,Deaths,Angola,Rate,0.002935,2019,0.003087,0.002639
0,Deaths,Libya,Number,0.41373,2021,0.43505,0.366839
0,Deaths,Libya,Percent,0.000007,2021,0.000007,0.000006
0,Deaths,Libya,Rate,0.005695,2021,0.005989,0.00505
0,Deaths,Kiribati,Number,0.003722,2018,0.00405,0.003188
0,Deaths,Kiribati,Percent,0.000004,2018,0.000004,0.000003
0,Deaths,Kiribati,Rate,0.003151,2018,0.003428,0.002698
0,Deaths,Timor-Leste,Number,0.046736,2019,0.049917,0.041767
0,Deaths,Timor-Leste,Percent,0.000005,2019,0.000005,0.000004
0,Deaths,Timor-Leste,Rate,0.003512,2019,0.003751,0.003139
0,Deaths,Mali,Number,0.662419,2017,0.679275,0.615518
0,Deaths,Mali,Percent,0.000003,2017,0.000003,0.000002
0,Deaths,Mali,Rate,0.003291,2017,0.003374,0.003058
0,Deaths,Jordan,Number,0.457009,2020,0.449571,0.441895
0,Deaths,Jordan,Percent,0.000009,2020,0.000009,0.000009
0,Deaths,Jordan,Rate,0.003815,2020,0.003753,0.003689
0,Deaths,Cyprus,Number,0.170617,2020,0.168305,0.164515
0,Deaths,Cyprus,Percent,0.000016,2020,0.000015,0.000015
0,Deaths,Cyprus,Rate,0.012844,2020,0.012669,0.012384
0,Deaths,Peru,Percent,0.000013,2019,0.000012,0.000013
0,Deaths,Peru,Rate,0.006641,2019,0.006518,0.006472
0,Deaths,Mexico,Percent,0.000008,2017,0.000007,0.000008
0,Deaths,Mexico,Rate,0.005022,2017,0.004727,0.00507
0,Deaths,'Puerto Rico',Number,0.396205,2019,0.380042,0.384946
0,Deaths,'Puerto Rico',Percent,0.000012,2019,0.000012,0.000012
0,Deaths,'Puerto Rico',Rate,0.011813,2019,0.011331,0.011478
0,Deaths,Thailand,Percent,0.000013,2021,0.000014,0.000013
0,Deaths,Thailand,Rate,0.012749,2021,0.013343,0.012257
0,Deaths,'Bosnia and Herzegovina',Number,0.613843,2021,0.594357,0.600728
0,Deaths,'Bosnia and Herzegovina',Percent,0.000011,2021,0.000011,0.000011
0,Deaths,'Bosnia and Herzegovina',Rate,0.018645,2021,0.018053,0.018247
0,Deaths,Guatemala,Number,0.682002,2020,0.644306,0.687607
0,Deaths,Guatemala,Percent,0.000006,2020,0.000005,0.000006
0,Deaths,Guatemala,Rate,0.004283,2020,0.004046,0.004319
0,Deaths,Nauru,Number,0.000857,2020,0.00094,0.000749
0,Deaths,Nauru,Percent,0.000007,2020,0.000007,0.000006
0,Deaths,Nauru,Rate,0.007272,2020,0.007976,0.006361
0,Deaths,Norway,Number,0.819484,2019,0.793317,0.781733
0,Deaths,Norway,Percent,0.000019,2019,0.000018,0.000018
0,Deaths,Norway,Rate,0.015373,2019,0.014882,0.014665
0,Deaths,'Bosnia and Herzegovina',Number,0.629941,2019,0.611698,0.610047
0,Deaths,'Bosnia and Herzegovina',Percent,0.000015,2019,0.000015,0.000015
0,Deaths,'Bosnia and Herzegovina',Rate,0.018645,2019,0.018105,0.018057
0,Deaths,'United States Virgin Islands',Number,0.012197,2020,0.012,0.011703
0,Deaths,'United States Virgin Islands',Percent,0.000013,2020,0.000012,0.000013
0,Deaths,'United States Virgin Islands',Rate,0.013615,2020,0.013395,0.013063
0,Deaths,Djibouti,Number,0.060595,2022,0.063425,0.055119
0,Deaths,Djibouti,Percent,0.000006,2022,0.000006,0.000006
0,Deaths,Djibouti,Rate,0.004469,2022,0.004677,0.004065
0,Deaths,'Republic of Moldova',Number,0.436778,2018,0.415266,0.437401
0,Deaths,'Republic of Moldova',Percent,0.000009,2018,0.000009,0.00001
0,Deaths,'Republic of Moldova',Rate,0.011718,2018,0.011141,0.011735
0,Deaths,Argentina,Percent,0.000014,2017,0.000013,0.000014
0,Deaths,Argentina,Rate,0.011444,2017,0.010849,0.011466
0,Deaths,'Northern Mariana Islands',Number,0.004554,2019,0.004636,0.004323
0,Deaths,'Northern Mariana Islands',Percent,0.000012,2019,0.000012,0.000012
0,Deaths,'Northern Mariana Islands',Rate,0.009383,2019,0.009551,0.008906
0,Deaths,Romania,Percent,0.000009,2021,0.000009,0.00001
0,Deaths,Romania,Rate,0.017641,2021,0.01662,0.017889
0,Deaths,'Russian Federation',Percent,0.000007,2021,0.000007,0.000008
0,Deaths,'Russian Federation',Rate,0.013613,2021,0.012816,0.013758
0,Deaths,'Sierra Leone',Number,0.230888,2017,0.2373,0.210488
0,Deaths,'Sierra Leone',Percent,0.000002,2017,0.000002,0.000002
0,Deaths,'Sierra Leone',Rate,0.003066,2017,0.003151,0.002796
0,Deaths,Philippines,Percent,0.000006,2018,0.000006,0.000006
0,Deaths,Philippines,Rate,0.004231,2018,0.004133,0.004176
0,Deaths,'Trinidad and Tobago',Number,0.135972,2018,0.131148,0.13479
0,Deaths,'Trinidad and Tobago',Percent,0.000011,2018,0.00001,0.000011
0,Deaths,'Trinidad and Tobago',Rate,0.009745,2018,0.0094,0.009661
0,Deaths,Albania,Number,0.29682,2018,0.297729,0.281452
0,Deaths,Albania,Percent,0.000012,2018,0.000012,0.000012
0,Deaths,Albania,Rate,0.011207,2018,0.011241,0.010626
0,Deaths,Malawi,Number,0.783018,2017,0.851895,0.675073
0,Deaths,Malawi,Percent,0.000004,2017,0.000005,0.000004
0,Deaths,Malawi,Rate,0.004383,2017,0.004768,0.003779
0,Deaths,Georgia,Number,0.576502,2021,0.548974,0.575984
0,Deaths,Georgia,Percent,0.000008,2021,0.000008,0.000009
0,Deaths,Georgia,Rate,0.015831,2021,0.015075,0.015817
0,Deaths,Andorra,Number,0.014206,2022,0.014242,0.013137
0,Deaths,Andorra,Percent,0.00002,2022,0.00002,0.000019
0,Deaths,Andorra,Rate,0.016393,2022,0.016434,0.015159
0,Deaths,Yemen,Number,0.711039,2019,0.79351,0.579707
0,Deaths,Yemen,Percent,0.000003,2019,0.000003,0.000003
0,Deaths,Yemen,Rate,0.00219,2019,0.002444,0.001785
0,Deaths,'Northern Mariana Islands',Number,0.005345,2021,0.005573,0.00499
0,Deaths,'Northern Mariana Islands',Percent,0.000011,2021,0.000011,0.00001
0,Deaths,'Northern Mariana Islands',Rate,0.01116,2021,0.011637,0.010419
0,Deaths,Japan,Percent,0.00002,2018,0.00002,0.000018
0,Deaths,Japan,Rate,0.023209,2018,0.023048,0.020828
0,Deaths,Denmark,Percent,0.000021,2017,0.00002,0.000021
0,Deaths,Denmark,Rate,0.020753,2017,0.01984,0.020074
0,Deaths,Luxembourg,Number,0.078368,2021,0.075327,0.076903
0,Deaths,Luxembourg,Percent,0.000017,2021,0.000016,0.000017
0,Deaths,Luxembourg,Rate,0.012349,2021,0.01187,0.012119
0,Deaths,Kazakhstan,Percent,0.000008,2019,0.000007,0.000008
0,Deaths,Kazakhstan,Rate,0.006373,2019,0.006096,0.006347
0,Deaths,Gabon,Number,0.099324,2021,0.103907,0.091578
0,Deaths,Gabon,Percent,0.000005,2021,0.000005,0.000005
0,Deaths,Gabon,Rate,0.005358,2021,0.005606,0.004941
0,Deaths,Norway,Number,0.814424,2022,0.788577,0.779283
0,Deaths,Norway,Percent,0.000017,2022,0.000016,0.000016
0,Deaths,Norway,Rate,0.014982,2022,0.014506,0.014336
0,Deaths,Andorra,Number,0.012474,2019,0.012523,0.011723
0,Deaths,Andorra,Percent,0.000022,2019,0.000022,0.000021
0,Deaths,Andorra,Rate,0.015269,2019,0.015328,0.01435
0,Deaths,Mexico,Percent,0.000005,2020,0.000005,0.000006
0,Deaths,Mexico,Rate,0.005223,2020,0.004887,0.005314
0,Deaths,Australia,Percent,0.00002,2021,0.000019,0.000018
0,Deaths,Australia,Rate,0.01362,2021,0.013162,0.01274
0,Deaths,Croatia,Number,0.940069,2018,0.891877,0.936679
0,Deaths,Croatia,Percent,0.000017,2018,0.000016,0.000017
0,Deaths,Croatia,Rate,0.022813,2018,0.021643,0.022731
0,Deaths,Senegal,Number,0.400739,2020,0.413998,0.370138
0,Deaths,Senegal,Percent,0.000003,2020,0.000003,0.000003
0,Deaths,Senegal,Rate,0.002354,2020,0.002432,0.002174
0,Deaths,Nicaragua,Number,0.262713,2017,0.266824,0.258525
0,Deaths,Nicaragua,Percent,0.000008,2017,0.000008,0.000008
0,Deaths,Nicaragua,Rate,0.004134,2017,0.004198,0.004068
0,Deaths,Switzerland,Percent,0.000016,2020,0.000015,0.000015
0,Deaths,Switzerland,Rate,0.014752,2020,0.014221,0.014105
0,Deaths,Lebanon,Number,0.394615,2018,0.393122,0.371549
0,Deaths,Lebanon,Percent,0.000014,2018,0.000014,0.000014
0,Deaths,Lebanon,Rate,0.006945,2018,0.006919,0.00654
0,Deaths,Kenya,Percent,0.000005,2020,0.000005,0.000005
0,Deaths,Kenya,Rate,0.003961,2020,0.004031,0.00371
0,Deaths,'South Sudan',Number,0.481766,2021,0.50857,0.435205
0,Deaths,'South Sudan',Percent,0.000004,2021,0.000004,0.000003
0,Deaths,'South Sudan',Rate,0.005022,2021,0.005302,0.004537
0,Deaths,'Bolivia (Plurinational State of)',Percent,0.000008,2021,0.000008,0.000008
0,Deaths,'Bolivia (Plurinational State of)',Rate,0.009348,2021,0.009412,0.008962
0,Deaths,Ireland,Number,0.648535,2019,0.62175,0.624113
0,Deaths,Ireland,Percent,0.00002,2019,0.000019,0.000019
0,Deaths,Ireland,Rate,0.012831,2019,0.012301,0.012348
0,Deaths,Morocco,Percent,0.000005,2021,0.000006,0.000004
0,Deaths,Morocco,Rate,0.005005,2021,0.005581,0.004319
0,Deaths,Madagascar,Percent,0.000004,2020,0.000004,0.000004
0,Deaths,Madagascar,Rate,0.004115,2020,0.004278,0.003877
0,Deaths,Kazakhstan,Percent,0.000006,2021,0.000005,0.000006
0,Deaths,Kazakhstan,Rate,0.00623,2021,0.005907,0.006229
0,Deaths,Albania,Number,0.315733,2020,0.317322,0.305283
0,Deaths,Albania,Percent,0.00001,2020,0.00001,0.00001
0,Deaths,Albania,Rate,0.012194,2020,0.012255,0.011791
0,Deaths,Ukraine,Percent,0.000006,2021,0.000005,0.000006
0,Deaths,Ukraine,Rate,0.012392,2021,0.011731,0.012495
0,Deaths,Pakistan,Percent,0.000006,2021,0.000006,0.000006
0,Deaths,Pakistan,Rate,0.004756,2021,0.00484,0.004454
0,Deaths,Ireland,Number,0.710773,2022,0.686878,0.681349
0,Deaths,Ireland,Percent,0.000019,2022,0.000018,0.000019
0,Deaths,Ireland,Rate,0.013516,2022,0.013062,0.012957
0,Deaths,'Central African Republic',Number,0.160136,2019,0.177734,0.127569
0,Deaths,'Central African Republic',Percent,0.000001,2019,0.000001,0.000001
0,Deaths,'Central African Republic',Rate,0.002701,2019,0.002998,0.002152
0,Deaths,Samoa,Number,0.006094,2017,0.00678,0.005257
0,Deaths,Samoa,Percent,0.000004,2017,0.000004,0.000003
0,Deaths,Samoa,Rate,0.002971,2017,0.003305,0.002563
0,Deaths,'Dominican Republic',Number,0.752042,2020,0.746241,0.695788
0,Deaths,'Dominican Republic',Percent,0.000008,2020,0.000008,0.000008
0,Deaths,'Dominican Republic',Rate,0.00689,2020,0.006836,0.006374
0,Deaths,'Bosnia and Herzegovina',Number,0.623552,2020,0.603328,0.613399
0,Deaths,'Bosnia and Herzegovina',Percent,0.000013,2020,0.000012,0.000013
0,Deaths,'Bosnia and Herzegovina',Rate,0.018676,2020,0.018071,0.018372
0,Deaths,Tajikistan,Number,0.35505,2022,0.39643,0.321712
0,Deaths,Tajikistan,Percent,0.000006,2022,0.000007,0.000006
0,Deaths,Tajikistan,Rate,0.003392,2022,0.003787,0.003074
0,Deaths,Denmark,Percent,0.000021,2020,0.00002,0.00002
0,Deaths,Denmark,Rate,0.020832,2020,0.019959,0.01999
0,Deaths,'Bosnia and Herzegovina',Number,0.61814,2018,0.599478,0.605305
0,Deaths,'Bosnia and Herzegovina',Percent,0.000015,2018,0.000015,0.000015
0,Deaths,'Bosnia and Herzegovina',Rate,0.018071,2018,0.017525,0.017696
0,Deaths,Bulgaria,Percent,0.000008,2021,0.000007,0.000008
0,Deaths,Bulgaria,Rate,0.018896,2021,0.017801,0.019158
0,Deaths,Libya,Number,0.328613,2018,0.346549,0.288799
0,Deaths,Libya,Percent,0.000009,2018,0.000009,0.000008
0,Deaths,Libya,Rate,0.004677,2018,0.004932,0.00411
0,Deaths,Congo,Number,0.236371,2022,0.257311,0.208601
0,Deaths,Congo,Percent,0.000005,2022,0.000005,0.000004
0,Deaths,Congo,Rate,0.003949,2022,0.004299,0.003485
0,Deaths,Belize,Number,0.019025,2022,0.018617,0.018581
0,Deaths,Belize,Percent,0.000008,2022,0.000007,0.000008
0,Deaths,Belize,Rate,0.004653,2022,0.004553,0.004545
0,Deaths,'American Samoa',Number,0.003991,2020,0.004094,0.00371
0,Deaths,'American Samoa',Percent,0.000009,2020,0.000009,0.000009
0,Deaths,'American Samoa',Rate,0.007848,2020,0.008051,0.007296
0,Deaths,Congo,Number,0.188103,2019,0.20308,0.166559
0,Deaths,Congo,Percent,0.000004,2019,0.000004,0.000003
0,Deaths,Congo,Rate,0.003372,2019,0.003641,0.002986
0,Deaths,Israel,Number,0.952792,2022,0.919005,0.908009
0,Deaths,Israel,Percent,0.000017,2022,0.000017,0.000017
0,Deaths,Israel,Rate,0.009688,2022,0.009344,0.009232
0,Deaths,'Marshall Islands',Number,0.002865,2018,0.003063,0.002572
0,Deaths,'Marshall Islands',Percent,0.000007,2018,0.000007,0.000006
0,Deaths,'Marshall Islands',Rate,0.006068,2018,0.006488,0.005446
0,Deaths,Canada,Percent,0.00002,2018,0.000019,0.000019
0,Deaths,Canada,Rate,0.015973,2018,0.015272,0.015367
0,Deaths,Mauritius,Number,0.093513,2017,0.089169,0.093447
0,Deaths,Mauritius,Percent,0.000008,2017,0.000008,0.000008
0,Deaths,Mauritius,Rate,0.007301,2017,0.006962,0.007296
0,Deaths,Afghanistan,Number,0.660771,2022,0.72357,0.544546
0,Deaths,Afghanistan,Percent,0.000003,2022,0.000003,0.000002
0,Deaths,Afghanistan,Rate,0.001793,2022,0.001963,0.001477
0,Deaths,Czechia,Percent,0.000017,2018,0.000016,0.000017
0,Deaths,Czechia,Rate,0.018861,2018,0.017804,0.01883
0,Deaths,'Côte dIvoire',Number,0.78685,2018,0.831399,0.7136
0,Deaths,'Côte dIvoire',Percent,0.000003,2018,0.000003,0.000002
0,Deaths,'Côte dIvoire',Rate,0.002842,2018,0.003003,0.002578
0,Deaths,Malta,Number,0.068329,2021,0.066444,0.065385
0,Deaths,Malta,Percent,0.000016,2021,0.000015,0.000015
0,Deaths,Malta,Rate,0.012836,2021,0.012482,0.012283
0,Deaths,Botswana,Number,0.080785,2019,0.087416,0.069648
0,Deaths,Botswana,Percent,0.000004,2019,0.000004,0.000003
0,Deaths,Botswana,Rate,0.003465,2019,0.00375,0.002988
0,Deaths,Serbia,Percent,0.000011,2021,0.00001,0.000011
0,Deaths,Serbia,Rate,0.020427,2021,0.019487,0.020056
0,Deaths,Palau,Number,0.002383,2019,0.00241,0.002252
0,Deaths,Palau,Percent,0.000012,2019,0.000012,0.000012
0,Deaths,Palau,Rate,0.013232,2019,0.013383,0.012503
0,Deaths,'United Arab Emirates',Number,0.134483,2021,0.142724,0.126417
0,Deaths,'United Arab Emirates',Percent,0.00001,2021,0.00001,0.000009
0,Deaths,'United Arab Emirates',Rate,0.001344,2021,0.001426,0.001263
0,Deaths,Cambodia,Number,0.730019,2023,0.775944,0.663088
0,Deaths,Cambodia,Percent,0.000006,2023,0.000006,0.000006
0,Deaths,Cambodia,Rate,0.004245,2023,0.004512,0.003856
0,Deaths,'Equatorial Guinea',Number,0.050078,2019,0.054586,0.040847
0,Deaths,'Equatorial Guinea',Percent,0.000004,2019,0.000004,0.000003
0,Deaths,'Equatorial Guinea',Rate,0.003451,2019,0.003762,0.002815
0,Deaths,Guyana,Number,0.059016,2023,0.059027,0.055983
0,Deaths,Guyana,Percent,0.000008,2023,0.000007,0.000008
0,Deaths,Guyana,Rate,0.007229,2023,0.00723,0.006858
0,Deaths,Palau,Number,0.002802,2021,0.002915,0.00258
0,Deaths,Palau,Percent,0.000011,2021,0.000012,0.00001
0,Deaths,Palau,Rate,0.015611,2021,0.01624,0.014372
0,Deaths,Austria,Percent,0.000016,2022,0.000015,0.000016
0,Deaths,Austria,Rate,0.017556,2022,0.0169,0.016819
0,Deaths,Eritrea,Number,0.371497,2022,0.381416,0.341844
0,Deaths,Eritrea,Percent,0.000005,2022,0.000005,0.000005
0,Deaths,Eritrea,Rate,0.005408,2022,0.005552,0.004976
0,Deaths,'San Marino',Number,0.004842,2022,0.004985,0.00439
0,Deaths,'San Marino',Percent,0.000015,2022,0.000015,0.000014
0,Deaths,'San Marino',Rate,0.013837,2022,0.014248,0.012546
0,Deaths,'Solomon Islands',Number,0.037607,2017,0.039578,0.034039
0,Deaths,'Solomon Islands',Percent,0.000006,2017,0.000006,0.000005
0,Deaths,'Solomon Islands',Rate,0.005338,2017,0.005618,0.004832
0,Deaths,Niue,Number,0.000136,2020,0.000144,0.000123
0,Deaths,Niue,Percent,0.000007,2020,0.000007,0.000006
0,Deaths,Niue,Rate,0.008273,2020,0.008731,0.007491
0,Deaths,Benin,Number,0.293576,2020,0.308722,0.257976
0,Deaths,Benin,Percent,0.000002,2020,0.000002,0.000002
0,Deaths,Benin,Rate,0.002254,2020,0.00237,0.001981
0,Deaths,'Sierra Leone',Number,0.251459,2020,0.26365,0.227475
0,Deaths,'Sierra Leone',Percent,0.000002,2020,0.000002,0.000002
0,Deaths,'Sierra Leone',Rate,0.00323,2020,0.003387,0.002922
0,Deaths,Guyana,Number,0.047967,2020,0.046973,0.047503
0,Deaths,Guyana,Percent,0.000007,2020,0.000006,0.000007
0,Deaths,Guyana,Rate,0.005862,2020,0.00574,0.005805
0,Deaths,'Saint Kitts and Nevis',Number,0.004522,2019,0.004381,0.004457
0,Deaths,'Saint Kitts and Nevis',Percent,0.000011,2019,0.000011,0.000011
0,Deaths,'Saint Kitts and Nevis',Rate,0.009342,2019,0.00905,0.009208
0,Deaths,Belarus,Percent,0.000009,2022,0.000009,0.000009
0,Deaths,Belarus,Rate,0.014364,2022,0.01389,0.014257
0,Deaths,'Republic of Korea',Percent,0.00002,2018,0.00002,0.000019
0,Deaths,'Republic of Korea',Rate,0.012148,2018,0.012097,0.011276
0,Deaths,'Syrian Arab Republic',Number,0.546498,2018,0.56422,0.499428
0,Deaths,'Syrian Arab Republic',Percent,0.000004,2018,0.000004,0.000004
0,Deaths,'Syrian Arab Republic',Rate,0.003065,2018,0.003164,0.002801
0,Deaths,Portugal,Percent,0.000016,2022,0.000015,0.000015
0,Deaths,Portugal,Rate,0.020417,2022,0.01964,0.019492
0,Deaths,Algeria,Percent,0.000005,2021,0.000005,0.000004
0,Deaths,Algeria,Rate,0.003381,2021,0.003734,0.002811
0,Deaths,Turkmenistan,Number,0.248844,2020,0.24496,0.241933
0,Deaths,Turkmenistan,Percent,0.000005,2020,0.000005,0.000006
0,Deaths,Turkmenistan,Rate,0.004595,2020,0.004523,0.004468
0,Deaths,Kyrgyzstan,Number,0.247913,2019,0.236843,0.250297
0,Deaths,Kyrgyzstan,Percent,0.000007,2019,0.000006,0.000007
0,Deaths,Kyrgyzstan,Rate,0.003654,2019,0.00349,0.003689
0,Deaths,Timor-Leste,Number,0.051465,2021,0.054991,0.045664
0,Deaths,Timor-Leste,Percent,0.000005,2021,0.000005,0.000004
0,Deaths,Timor-Leste,Rate,0.003727,2021,0.003982,0.003307
0,Deaths,Ghana,Percent,0.000003,2021,0.000003,0.000003
0,Deaths,Ghana,Rate,0.003144,2021,0.003204,0.002936
0,Deaths,'Iran (Islamic Republic of)',Percent,0.000011,2022,0.000011,0.00001
0,Deaths,'Iran (Islamic Republic of)',Rate,0.005138,2022,0.00518,0.004811
0,Deaths,Cuba,Percent,0.000014,2022,0.000013,0.000014
0,Deaths,Cuba,Rate,0.015636,2022,0.015731,0.015112
0,Deaths,China,Percent,0.000015,2021,0.000015,0.000015
0,Deaths,China,Rate,0.011109,2021,0.010958,0.010632
0,Deaths,Ecuador,Percent,0.000008,2021,0.000007,0.000008
0,Deaths,Ecuador,Rate,0.005913,2021,0.005554,0.005931
0,Deaths,Bermuda,Number,0.011467,2020,0.011068,0.011125
0,Deaths,Bermuda,Percent,0.000018,2020,0.000017,0.000018
0,Deaths,Bermuda,Rate,0.01785,2020,0.017229,0.017318
0,Deaths,Bulgaria,Percent,0.000011,2019,0.00001,0.000012
0,Deaths,Bulgaria,Rate,0.018763,2019,0.01775,0.018911
0,Deaths,Seychelles,Number,0.009442,2019,0.00934,0.009124
0,Deaths,Seychelles,Percent,0.000013,2019,0.000013,0.000012
0,Deaths,Seychelles,Rate,0.009142,2019,0.009043,0.008835
0,Deaths,'United Republic of Tanzania',Percent,0.000005,2022,0.000005,0.000004
0,Deaths,'United Republic of Tanzania',Rate,0.003198,2022,0.003403,0.002868
0,Deaths,'Republic of Moldova',Number,0.388985,2020,0.366167,0.395554
0,Deaths,'Republic of Moldova',Percent,0.000007,2020,0.000007,0.000008
0,Deaths,'Republic of Moldova',Rate,0.01055,2020,0.009931,0.010729
0,Deaths,Grenada,Number,0.013295,2020,0.012973,0.013121
0,Deaths,Grenada,Percent,0.000012,2020,0.000011,0.000012
0,Deaths,Grenada,Rate,0.011659,2020,0.011376,0.011507
0,Deaths,'United Kingdom',Percent,0.000017,2020,0.000016,0.000017
0,Deaths,'United Kingdom',Rate,0.018575,2020,0.017728,0.017928
0,Deaths,Lesotho,Number,0.086701,2019,0.098421,0.074737
0,Deaths,Lesotho,Percent,0.000003,2019,0.000003,0.000002
0,Deaths,Lesotho,Rate,0.004574,2019,0.005192,0.003943
0,Deaths,Kuwait,Number,0.08627,2020,0.082507,0.085943
0,Deaths,Kuwait,Percent,0.000008,2020,0.000007,0.000008
0,Deaths,Kuwait,Rate,0.001986,2020,0.001899,0.001978
0,Deaths,Estonia,Number,0.242654,2022,0.232304,0.236835
0,Deaths,Estonia,Percent,0.000013,2022,0.000012,0.000013
0,Deaths,Estonia,Rate,0.018085,2022,0.017313,0.017651
0,Deaths,China,Percent,0.000015,2022,0.000015,0.000015
0,Deaths,China,Rate,0.01215,2022,0.012408,0.011295
0,Deaths,Seychelles,Number,0.010512,2021,0.010738,0.009965
0,Deaths,Seychelles,Percent,0.00001,2021,0.00001,0.000009
0,Deaths,Seychelles,Rate,0.010031,2021,0.010246,0.009509
0,Deaths,'Northern Mariana Islands',Number,0.00499,2020,0.005086,0.004704
0,Deaths,'Northern Mariana Islands',Percent,0.000012,2020,0.000012,0.000011
0,Deaths,'Northern Mariana Islands',Rate,0.010348,2020,0.010546,0.009753
0,Deaths,Italy,Percent,0.000016,2022,0.000016,0.000015
0,Deaths,Italy,Rate,0.021272,2022,0.020739,0.019781
0,Deaths,Bulgaria,Percent,0.00001,2020,0.000009,0.00001
0,Deaths,Bulgaria,Rate,0.019058,2020,0.01799,0.019242
0,Deaths,Yemen,Number,0.770543,2021,0.858007,0.631503
0,Deaths,Yemen,Percent,0.000003,2021,0.000004,0.000003
0,Deaths,Yemen,Rate,0.002266,2021,0.002524,0.001857
0,Deaths,Finland,Number,0.935527,2017,0.90635,0.886941
0,Deaths,Finland,Percent,0.000016,2017,0.000016,0.000016
0,Deaths,Finland,Rate,0.016972,2017,0.016442,0.01609
0,Deaths,Ethiopia,Percent,0.000007,2022,0.000007,0.000007
0,Deaths,Ethiopia,Rate,0.005685,2022,0.005895,0.005326
0,Deaths,Kyrgyzstan,Number,0.231527,2021,0.218976,0.23557
0,Deaths,Kyrgyzstan,Percent,0.000005,2021,0.000004,0.000005
0,Deaths,Kyrgyzstan,Rate,0.003298,2021,0.003119,0.003356
0,Deaths,Namibia,Number,0.114878,2022,0.118626,0.100676
0,Deaths,Namibia,Percent,0.000004,2022,0.000004,0.000004
0,Deaths,Namibia,Rate,0.00392,2022,0.004048,0.003435
0,Deaths,'New Zealand',Number,0.708134,2021,0.683888,0.673872
0,Deaths,'New Zealand',Percent,0.000019,2021,0.000018,0.000018
0,Deaths,'New Zealand',Rate,0.013821,2021,0.013348,0.013152
0,Deaths,Slovakia,Number,0.993061,2021,0.95677,0.990704
0,Deaths,Slovakia,Percent,0.000012,2021,0.000012,0.000013
0,Deaths,Slovakia,Rate,0.018254,2021,0.017587,0.018211
0,Deaths,Indonesia,Percent,0.000008,2023,0.000008,0.000007
0,Deaths,Indonesia,Rate,0.005655,2023,0.005909,0.005221
0,Deaths,Gambia,Number,0.03807,2018,0.04231,0.033136
0,Deaths,Gambia,Percent,0.000002,2018,0.000002,0.000001
0,Deaths,Gambia,Rate,0.0017,2018,0.001889,0.00148
0,Deaths,Turkmenistan,Number,0.256856,2022,0.256518,0.248707
0,Deaths,Turkmenistan,Percent,0.000006,2022,0.000006,0.000006
0,Deaths,Turkmenistan,Rate,0.004634,2022,0.004627,0.004487
0,Deaths,Malawi,Number,0.88834,2020,0.974451,0.779264
0,Deaths,Malawi,Percent,0.000005,2020,0.000005,0.000004
0,Deaths,Malawi,Rate,0.004593,2020,0.005038,0.004029
0,Deaths,Comoros,Number,0.019142,2019,0.019652,0.017528
0,Deaths,Comoros,Percent,0.000004,2019,0.000004,0.000003
0,Deaths,Comoros,Rate,0.002348,2019,0.00241,0.00215
0,Deaths,Finland,Number,0.962295,2020,0.932322,0.90605
0,Deaths,Finland,Percent,0.000016,2020,0.000016,0.000015
0,Deaths,Finland,Rate,0.017377,2020,0.016836,0.016362
0,Deaths,Latvia,Number,0.386601,2022,0.369416,0.384933
0,Deaths,Latvia,Percent,0.000012,2022,0.000011,0.000012
0,Deaths,Latvia,Rate,0.020183,2022,0.019285,0.020096
0,Deaths,Lebanon,Number,0.60897,2020,0.599372,0.593289
0,Deaths,Lebanon,Percent,0.000012,2020,0.000012,0.000012
0,Deaths,Lebanon,Rate,0.010683,2020,0.010514,0.010408
0,Deaths,Tokelau,Number,0.000102,2022,0.000112,0.00009
0,Deaths,Tokelau,Percent,0.000007,2022,0.000007,0.000006
0,Deaths,Tokelau,Rate,0.006413,2022,0.007008,0.005662
0,Deaths,Bangladesh,Percent,0.000008,2022,0.000008,0.000008
0,Deaths,Bangladesh,Rate,0.005731,2022,0.006024,0.005135
0,Deaths,Eswatini,Number,0.062456,2022,0.071943,0.050962
0,Deaths,Eswatini,Percent,0.000004,2022,0.000005,0.000003
0,Deaths,Eswatini,Rate,0.005302,2022,0.006107,0.004326
0,Deaths,Benin,Number,0.337782,2023,0.36361,0.292594
0,Deaths,Benin,Percent,0.000002,2023,0.000003,0.000002
0,Deaths,Benin,Rate,0.002375,2023,0.002557,0.002057
0,Deaths,Palau,Number,0.002533,2020,0.002578,0.002365
0,Deaths,Palau,Percent,0.000012,2020,0.000012,0.000011
0,Deaths,Palau,Rate,0.014082,2020,0.014332,0.013146
0,Deaths,Haiti,Number,0.754904,2023,0.804067,0.677867
0,Deaths,Haiti,Percent,0.000005,2023,0.000005,0.000005
0,Deaths,Haiti,Rate,0.005594,2023,0.005958,0.005023
0,Deaths,Belgium,Percent,0.000018,2022,0.000017,0.000017
0,Deaths,Belgium,Rate,0.018816,2022,0.018164,0.017845
0,Deaths,Hungary,Percent,0.000016,2018,0.000015,0.000016
0,Deaths,Hungary,Rate,0.022713,2018,0.021314,0.02283
0,Deaths,'United States of America',Percent,0.000015,2018,0.000014,0.000014
0,Deaths,'United States of America',Rate,0.013554,2018,0.013038,0.013041
0,Deaths,Botswana,Number,0.096525,2021,0.101381,0.086472
0,Deaths,Botswana,Percent,0.000003,2021,0.000003,0.000003
0,Deaths,Botswana,Rate,0.00404,2021,0.004243,0.003619
0,Deaths,Gabon,Number,0.090934,2019,0.09507,0.082649
0,Deaths,Gabon,Percent,0.000006,2019,0.000006,0.000005
0,Deaths,Gabon,Rate,0.005074,2019,0.005305,0.004612
0,Deaths,Netherlands,Percent,0.00002,2021,0.000018,0.000019
0,Deaths,Netherlands,Rate,0.020103,2021,0.019258,0.019308
0,Deaths,Palestine,Number,0.161167,2021,0.156753,0.156541
0,Deaths,Palestine,Percent,0.000007,2021,0.000007,0.000007
0,Deaths,Palestine,Rate,0.003075,2021,0.002991,0.002987
0,Deaths,Uganda,Percent,0.000006,2022,0.000006,0.000006
0,Deaths,Uganda,Rate,0.004699,2022,0.004856,0.004272
0,Deaths,Kenya,Percent,0.000007,2022,0.000007,0.000006
0,Deaths,Kenya,Rate,0.004138,2022,0.004294,0.003847
0,Deaths,Niger,Number,0.528884,2022,0.606676,0.464939
0,Deaths,Niger,Percent,0.000001,2022,0.000001,0.000001
0,Deaths,Niger,Rate,0.002059,2022,0.002362,0.00181
0,Deaths,Argentina,Percent,0.000014,2023,0.000013,0.000013
0,Deaths,Argentina,Rate,0.011471,2023,0.011058,0.01124
0,Deaths,'San Marino',Number,0.004862,2019,0.005009,0.004351
0,Deaths,'San Marino',Percent,0.00002,2019,0.00002,0.000018
0,Deaths,'San Marino',Rate,0.014,2019,0.014422,0.012528
0,Deaths,Dominica,Number,0.009793,2022,0.009934,0.0093
0,Deaths,Dominica,Percent,0.000014,2022,0.000014,0.000013
0,Deaths,Dominica,Rate,0.014118,2022,0.014322,0.013407
0,Deaths,Belize,Number,0.019466,2021,0.018704,0.019327
0,Deaths,Belize,Percent,0.000007,2021,0.000006,0.000007
0,Deaths,Belize,Rate,0.004815,2021,0.004626,0.004781
0,Deaths,'South Africa',Percent,0.000006,2022,0.000006,0.000006
0,Deaths,'South Africa',Rate,0.006695,2022,0.006787,0.006412
0,Deaths,Iraq,Percent,0.00001,2022,0.00001,0.000009
0,Deaths,Iraq,Rate,0.005386,2022,0.005569,0.004905
0,Deaths,Bahrain,Number,0.049338,2021,0.050129,0.046407
0,Deaths,Bahrain,Percent,0.000009,2021,0.000009,0.000008
0,Deaths,Bahrain,Rate,0.003202,2021,0.003254,0.003012
0,Deaths,'South Sudan',Number,0.480101,2020,0.500959,0.434284
0,Deaths,'South Sudan',Percent,0.000004,2020,0.000004,0.000003
0,Deaths,'South Sudan',Rate,0.005136,2020,0.005359,0.004646
0,Deaths,Sweden,Percent,0.000017,2022,0.000016,0.000016
0,Deaths,Sweden,Rate,0.016463,2022,0.015953,0.015509
0,Deaths,Tunisia,Number,0.964336,2018,0.971102,0.925539
0,Deaths,Tunisia,Percent,0.000013,2018,0.000013,0.000012
0,Deaths,Tunisia,Rate,0.008267,2018,0.008324,0.007934
0,Deaths,Namibia,Number,0.100713,2019,0.103551,0.088094
0,Deaths,Namibia,Percent,0.000004,2019,0.000004,0.000003
0,Deaths,Namibia,Rate,0.00373,2019,0.003835,0.003263
0,Deaths,Slovenia,Number,0.414328,2021,0.39421,0.406525
0,Deaths,Slovenia,Percent,0.000017,2021,0.000016,0.000017
0,Deaths,Slovenia,Rate,0.019719,2021,0.018762,0.019348
0,Deaths,Spain,Percent,0.000017,2022,0.000016,0.000016
0,Deaths,Spain,Rate,0.01785,2022,0.017205,0.016942
0,Deaths,Tuvalu,Number,0.001015,2022,0.001089,0.000889
0,Deaths,Tuvalu,Percent,0.000007,2022,0.000007,0.000006
0,Deaths,Tuvalu,Rate,0.009229,2022,0.009904,0.008084
0,Deaths,'Micronesia (Federated States of)',Number,0.006329,2020,0.006462,0.005892
0,Deaths,'Micronesia (Federated States of)',Percent,0.000006,2020,0.000006,0.000006
0,Deaths,'Micronesia (Federated States of)',Rate,0.0061,2020,0.006228,0.005679
0,Deaths,Bhutan,Number,0.036618,2022,0.038866,0.033263
0,Deaths,Bhutan,Percent,0.000006,2022,0.000007,0.000006
0,Deaths,Bhutan,Rate,0.004889,2022,0.005189,0.004441
0,Deaths,Andorra,Number,0.013459,2021,0.013543,0.012464
0,Deaths,Andorra,Percent,0.00002,2021,0.00002,0.000019
0,Deaths,Andorra,Rate,0.015948,2021,0.016047,0.014768
0,Deaths,'Burkina Faso',Number,0.640813,2023,0.67046,0.5789
0,Deaths,'Burkina Faso',Percent,0.000003,2023,0.000003,0.000003
0,Deaths,'Burkina Faso',Rate,0.002639,2023,0.002761,0.002384
0,Deaths,Malawi,Percent,0.000006,2023,0.000006,0.000005
0,Deaths,Malawi,Rate,0.005244,2023,0.00576,0.004582
0,Deaths,Somalia,Number,0.412437,2019,0.446072,0.358509
0,Deaths,Somalia,Percent,0.000002,2019,0.000002,0.000001
0,Deaths,Somalia,Rate,0.002189,2019,0.002367,0.001902
0,Deaths,Guyana,Number,0.053046,2022,0.052796,0.051772
0,Deaths,Guyana,Percent,0.000007,2022,0.000006,0.000007
0,Deaths,Guyana,Rate,0.006497,2022,0.006466,0.006341
0,Deaths,Jamaica,Number,0.299,2023,0.297661,0.285651
0,Deaths,Jamaica,Percent,0.000014,2023,0.000013,0.000014
0,Deaths,Jamaica,Rate,0.010504,2023,0.010456,0.010035
0,Deaths,'Brunei Darussalam',Number,0.032403,2021,0.031976,0.030851
0,Deaths,'Brunei Darussalam',Percent,0.000016,2021,0.000015,0.000015
0,Deaths,'Brunei Darussalam',Rate,0.00717,2021,0.007076,0.006827
0,Deaths,Libya,Number,0.370353,2020,0.393004,0.326211
0,Deaths,Libya,Percent,0.000008,2020,0.000008,0.000007
0,Deaths,Libya,Rate,0.005144,2020,0.005458,0.004531
0,Deaths,Finland,Percent,0.000016,2023,0.000016,0.000015
0,Deaths,Finland,Rate,0.019191,2023,0.018655,0.01788
0,Deaths,'Russian Federation',Percent,0.000009,2020,0.000008,0.000009
0,Deaths,'Russian Federation',Rate,0.01406,2020,0.013234,0.014177
0,Deaths,'Lao Peoples Democratic Republic',Number,0.409769,2023,0.426596,0.372245
0,Deaths,'Lao Peoples Democratic Republic',Percent,0.000006,2023,0.000006,0.000005
0,Deaths,'Lao Peoples Democratic Republic',Rate,0.005447,2023,0.00567,0.004948
0,Deaths,Togo,Number,0.301183,2023,0.327871,0.261483
0,Deaths,Togo,Percent,0.000004,2023,0.000004,0.000003
0,Deaths,Togo,Rate,0.00352,2023,0.003831,0.003056
0,Deaths,'Sierra Leone',Number,0.296424,2023,0.315916,0.261786
0,Deaths,'Sierra Leone',Percent,0.000003,2023,0.000003,0.000003
0,Deaths,'Sierra Leone',Rate,0.003698,2023,0.003941,0.003266
0,Deaths,Greece,Percent,0.000015,2021,0.000014,0.000014
0,Deaths,Greece,Rate,0.021313,2021,0.020382,0.020583
0,Deaths,Vanuatu,Number,0.01061,2023,0.011364,0.009377
0,Deaths,Vanuatu,Percent,0.000005,2023,0.000005,0.000004
0,Deaths,Vanuatu,Rate,0.003214,2023,0.003443,0.002841
0,Deaths,Samoa,Number,0.007936,2023,0.008809,0.00653
0,Deaths,Samoa,Percent,0.000005,2023,0.000005,0.000004
0,Deaths,Samoa,Rate,0.00362,2023,0.004018,0.002978
0,Deaths,Burundi,Number,0.482317,2021,0.521377,0.424266
0,Deaths,Burundi,Percent,0.000003,2021,0.000003,0.000003
0,Deaths,Burundi,Rate,0.003606,2021,0.003898,0.003172
0,Deaths,France,Percent,0.000021,2017,0.00002,0.00002
0,Deaths,France,Rate,0.01913,2017,0.018447,0.018149
0,Deaths,Croatia,Number,0.863115,2023,0.825805,0.855854
0,Deaths,Croatia,Percent,0.000016,2023,0.000015,0.000016
0,Deaths,Croatia,Rate,0.022195,2023,0.021235,0.022008
0,Deaths,'Cook Islands',Number,0.002216,2023,0.002295,0.002017
0,Deaths,'Cook Islands',Percent,0.000014,2023,0.000014,0.000013
0,Deaths,'Cook Islands',Rate,0.015068,2023,0.015608,0.013714
0,Deaths,Mongolia,Number,0.32055,2021,0.313061,0.314367
0,Deaths,Mongolia,Percent,0.000014,2021,0.000014,0.000014
0,Deaths,Mongolia,Rate,0.009555,2021,0.009332,0.009371
0,Deaths,Jordan,Number,0.499051,2022,0.496684,0.47505
0,Deaths,Jordan,Percent,0.000011,2022,0.000011,0.00001
0,Deaths,Jordan,Rate,0.0039,2022,0.003881,0.003712
0,Deaths,'Democratic Peoples Republic of Korea',Percent,0.000011,2022,0.000011,0.00001
0,Deaths,'Democratic Peoples Republic of Korea',Rate,0.010243,2022,0.010981,0.009088
0,Deaths,Lesotho,Number,0.091213,2021,0.102169,0.080225
0,Deaths,Lesotho,Percent,0.000002,2021,0.000003,0.000002
0,Deaths,Lesotho,Rate,0.004783,2021,0.005358,0.004207
0,Deaths,Cyprus,Number,0.184415,2022,0.186513,0.172014
0,Deaths,Cyprus,Percent,0.000015,2022,0.000015,0.000015
0,Deaths,Cyprus,Rate,0.01344,2022,0.013593,0.012536
0,Deaths,Mongolia,Number,0.284018,2019,0.275027,0.27722
0,Deaths,Mongolia,Percent,0.000016,2019,0.000015,0.000015
0,Deaths,Mongolia,Rate,0.008772,2019,0.008494,0.008562
0,Deaths,'Dominican Republic',Number,0.819518,2022,0.821881,0.758264
0,Deaths,'Dominican Republic',Percent,0.000009,2022,0.000009,0.000009
0,Deaths,'Dominican Republic',Rate,0.007374,2022,0.007395,0.006823
0,Deaths,India,Percent,0.000006,2022,0.000006,0.000006
0,Deaths,India,Rate,0.004653,2022,0.004776,0.004388
0,Deaths,Peru,Percent,0.000008,2021,0.000007,0.000008
0,Deaths,Peru,Rate,0.008149,2021,0.007891,0.007894
0,Deaths,'Puerto Rico',Number,0.389871,2021,0.372848,0.380071
0,Deaths,'Puerto Rico',Percent,0.000011,2021,0.00001,0.000011
0,Deaths,'Puerto Rico',Rate,0.01169,2021,0.011179,0.011396
0,Deaths,Cuba,Percent,0.000011,2021,0.00001,0.000011
0,Deaths,Cuba,Rate,0.01783,2021,0.016755,0.017986
0,Deaths,'Micronesia (Federated States of)',Number,0.006308,2022,0.006475,0.005828
0,Deaths,'Micronesia (Federated States of)',Percent,0.000006,2022,0.000006,0.000006
0,Deaths,'Micronesia (Federated States of)',Rate,0.006096,2022,0.006257,0.005631
0,Deaths,'North Macedonia',Number,0.302987,2018,0.292863,0.294617
0,Deaths,'North Macedonia',Percent,0.000014,2018,0.000013,0.000014
0,Deaths,'North Macedonia',Rate,0.015721,2018,0.015195,0.015287
0,Deaths,Somalia,Number,0.492271,2021,0.518269,0.450915
0,Deaths,Somalia,Percent,0.000001,2021,0.000001,0.000001
0,Deaths,Somalia,Rate,0.002419,2021,0.002546,0.002216
0,Deaths,'Democratic Peoples Republic of Korea',Percent,0.000011,2021,0.000011,0.00001
0,Deaths,'Democratic Peoples Republic of Korea',Rate,0.009779,2021,0.010423,0.008492
0,Deaths,'Taiwan (Province of China)',Percent,0.000018,2022,0.000017,0.000018
0,Deaths,'Taiwan (Province of China)',Rate,0.016763,2022,0.015985,0.01655
0,Deaths,Angola,Percent,0.000003,2021,0.000003,0.000003
0,Deaths,Angola,Rate,0.003108,2021,0.003293,0.002758
0,Deaths,Guinea,Number,0.459306,2022,0.496013,0.415838
0,Deaths,Guinea,Percent,0.000003,2022,0.000003,0.000003
0,Deaths,Guinea,Rate,0.003324,2022,0.00359,0.00301
0,Deaths,Pakistan,Percent,0.000006,2020,0.000005,0.000005
0,Deaths,Pakistan,Rate,0.004435,2020,0.004508,0.004157
0,Deaths,'Papua New Guinea',Number,0.357057,2020,0.374671,0.31648
0,Deaths,'Papua New Guinea',Percent,0.000005,2020,0.000005,0.000004
0,Deaths,'Papua New Guinea',Rate,0.003499,2020,0.003671,0.003101
0,Deaths,Nigeria,Percent,0.000003,2022,0.000003,0.000003
0,Deaths,Nigeria,Rate,0.002984,2022,0.003279,0.002564
0,Deaths,Lithuania,Number,0.5402,2022,0.511363,0.536445
0,Deaths,Lithuania,Percent,0.000011,2022,0.000011,0.000011
0,Deaths,Lithuania,Rate,0.019111,2022,0.01809,0.018978
0,Deaths,Belize,Number,0.018329,2019,0.017608,0.018083
0,Deaths,Belize,Percent,0.000008,2019,0.000008,0.000008
0,Deaths,Belize,Rate,0.00465,2019,0.004467,0.004587
0,Deaths,Mexico,Percent,0.000008,2023,0.000007,0.000008
0,Deaths,Mexico,Rate,0.005346,2023,0.005051,0.005398
0,Deaths,Norway,Number,0.797127,2021,0.772328,0.755562
0,Deaths,Norway,Percent,0.000018,2021,0.000017,0.000017
0,Deaths,Norway,Rate,0.014759,2021,0.0143,0.01399
0,Deaths,Egypt,Percent,0.000005,2021,0.000005,0.000005
0,Deaths,Egypt,Rate,0.004052,2021,0.004054,0.003807
0,Deaths,Morocco,Percent,0.000005,2020,0.000005,0.000004
0,Deaths,Morocco,Rate,0.004712,2020,0.005277,0.004065
0,Deaths,'Puerto Rico',Number,0.404494,2020,0.385908,0.396993
0,Deaths,'Puerto Rico',Percent,0.000012,2020,0.000011,0.000011
0,Deaths,'Puerto Rico',Rate,0.012027,2020,0.011475,0.011804
0,Deaths,Mauritius,Number,0.111929,2023,0.108005,0.11092
0,Deaths,Mauritius,Percent,0.000008,2023,0.000007,0.000008
0,Deaths,Mauritius,Rate,0.008781,2023,0.008473,0.008702
0,Deaths,France,Percent,0.000021,2023,0.00002,0.00002
0,Deaths,France,Rate,0.019724,2023,0.019035,0.018694
0,Deaths,Chile,Percent,0.000016,2023,0.000015,0.000016
0,Deaths,Chile,Rate,0.011009,2023,0.010564,0.010544
0,Deaths,Ukraine,Percent,0.000008,2020,0.000007,0.000008
0,Deaths,Ukraine,Rate,0.013076,2020,0.0124,0.013125
0,Deaths,Zambia,Number,0.756952,2022,0.800763,0.685403
0,Deaths,Zambia,Percent,0.000004,2022,0.000004,0.000004
0,Deaths,Zambia,Rate,0.003725,2022,0.00394,0.003373
0,Deaths,Tajikistan,Number,0.299698,2021,0.331602,0.273907
0,Deaths,Tajikistan,Percent,0.000005,2021,0.000005,0.000005
0,Deaths,Tajikistan,Rate,0.002925,2021,0.003236,0.002673
0,Deaths,'Saint Kitts and Nevis',Number,0.004983,2021,0.004879,0.004914
0,Deaths,'Saint Kitts and Nevis',Percent,0.00001,2021,0.00001,0.00001
0,Deaths,'Saint Kitts and Nevis',Rate,0.010326,2021,0.010112,0.010184
0,Deaths,Iceland,Number,0.046061,2021,0.044735,0.044091
0,Deaths,Iceland,Percent,0.000019,2021,0.000018,0.000018
0,Deaths,Iceland,Rate,0.012463,2021,0.012104,0.01193
0,Deaths,Comoros,Number,0.023969,2021,0.027128,0.018855
0,Deaths,Comoros,Percent,0.000003,2021,0.000004,0.000003
0,Deaths,Comoros,Rate,0.002825,2021,0.003197,0.002222
0,Deaths,Cambodia,Number,0.681206,2022,0.716712,0.621087
0,Deaths,Cambodia,Percent,0.000006,2022,0.000006,0.000006
0,Deaths,Cambodia,Rate,0.004011,2022,0.00422,0.003657
0,Deaths,Cameroon,Percent,0.000004,2023,0.000004,0.000003
0,Deaths,Cameroon,Rate,0.003595,2023,0.003801,0.003209
0,Deaths,Switzerland,Percent,0.000018,2022,0.000017,0.000017
0,Deaths,Switzerland,Rate,0.015659,2022,0.015197,0.014553
0,Deaths,Denmark,Percent,0.000021,2022,0.00002,0.00002
0,Deaths,Denmark,Rate,0.022404,2022,0.021605,0.021467
0,Deaths,'Central African Republic',Number,0.173747,2021,0.194955,0.137897
0,Deaths,'Central African Republic',Percent,0.000001,2021,0.000001,0.000001
0,Deaths,'Central African Republic',Rate,0.002764,2021,0.003102,0.002194
0,Deaths,'Papua New Guinea',Number,0.421374,2022,0.445737,0.369542
0,Deaths,'Papua New Guinea',Percent,0.000005,2022,0.000005,0.000005
0,Deaths,'Papua New Guinea',Rate,0.0039,2022,0.004126,0.003421
0,Deaths,'United Republic of Tanzania',Percent,0.000004,2021,0.000005,0.000003
0,Deaths,'United Republic of Tanzania',Rate,0.003622,2021,0.004107,0.002936
0,Deaths,Djibouti,Number,0.051122,2019,0.053469,0.047211
0,Deaths,Djibouti,Percent,0.000006,2019,0.000006,0.000005
0,Deaths,Djibouti,Rate,0.004107,2019,0.004296,0.003793
0,Deaths,Namibia,Number,0.116283,2021,0.11844,0.103453
0,Deaths,Namibia,Percent,0.000003,2021,0.000003,0.000002
0,Deaths,Namibia,Rate,0.004073,2021,0.004149,0.003624
0,Deaths,'Solomon Islands',Number,0.054795,2023,0.057952,0.04861
0,Deaths,'Solomon Islands',Percent,0.000007,2023,0.000007,0.000006
0,Deaths,'Solomon Islands',Rate,0.006372,2023,0.006739,0.005653
0,Deaths,'Antigua and Barbuda',Number,0.008093,2022,0.008025,0.007822
0,Deaths,'Antigua and Barbuda',Percent,0.000012,2022,0.000011,0.000012
0,Deaths,'Antigua and Barbuda',Rate,0.008929,2022,0.008854,0.00863
0,Deaths,Zimbabwe,Number,0.564885,2022,0.604605,0.509631
0,Deaths,Zimbabwe,Percent,0.000004,2022,0.000004,0.000003
0,Deaths,Zimbabwe,Rate,0.003593,2022,0.003845,0.003241
0,Deaths,Malaysia,Percent,0.000011,2023,0.00001,0.00001
0,Deaths,Malaysia,Rate,0.006498,2023,0.00641,0.006332
0,Deaths,Guinea-Bissau,Number,0.063076,2022,0.067065,0.055693
0,Deaths,Guinea-Bissau,Percent,0.000003,2022,0.000003,0.000002
0,Deaths,Guinea-Bissau,Rate,0.002971,2022,0.003159,0.002623
0,Deaths,Haiti,Number,0.715744,2022,0.765765,0.636343
0,Deaths,Haiti,Percent,0.000005,2022,0.000005,0.000004
0,Deaths,Haiti,Rate,0.005404,2022,0.005781,0.004804
0,Deaths,Honduras,Number,0.34375,2022,0.353436,0.313849
0,Deaths,Honduras,Percent,0.000006,2022,0.000006,0.000006
0,Deaths,Honduras,Rate,0.003273,2022,0.003365,0.002988
0,Deaths,'United Kingdom',Percent,0.000019,2022,0.000018,0.000018
0,Deaths,'United Kingdom',Rate,0.018668,2022,0.01788,0.017832
0,Deaths,'Taiwan (Province of China)',Percent,0.00002,2021,0.000018,0.000019
0,Deaths,'Taiwan (Province of China)',Rate,0.016178,2021,0.015497,0.015835
0,Deaths,Eswatini,Number,0.062054,2021,0.070862,0.051877
0,Deaths,Eswatini,Percent,0.000003,2021,0.000003,0.000003
0,Deaths,Eswatini,Rate,0.005297,2021,0.006049,0.004428
0,Deaths,Togo,Number,0.232169,2020,0.247612,0.206579
0,Deaths,Togo,Percent,0.000003,2020,0.000003,0.000002
0,Deaths,Togo,Rate,0.00287,2020,0.003061,0.002554
0,Deaths,Tajikistan,Number,0.271692,2019,0.304638,0.253391
0,Deaths,Tajikistan,Percent,0.000006,2019,0.000006,0.000005
0,Deaths,Tajikistan,Rate,0.002775,2019,0.003112,0.002588
0,Deaths,'Saint Lucia',Number,0.018965,2023,0.019037,0.01823
0,Deaths,'Saint Lucia',Percent,0.000013,2023,0.000013,0.000013
0,Deaths,'Saint Lucia',Rate,0.010603,2023,0.010643,0.010192
0,Deaths,Congo,Number,0.208324,2021,0.222384,0.188114
0,Deaths,Congo,Percent,0.000004,2021,0.000004,0.000003
0,Deaths,Congo,Rate,0.003559,2021,0.003799,0.003214
0,Deaths,Greenland,Number,0.011059,2023,0.01111,0.010574
0,Deaths,Greenland,Percent,0.00002,2023,0.00002,0.00002
0,Deaths,Greenland,Rate,0.019536,2023,0.019626,0.018679
0,Deaths,Maldives,Number,0.016902,2023,0.017113,0.015687
0,Deaths,Maldives,Percent,0.000008,2023,0.000008,0.000007
0,Deaths,Maldives,Rate,0.003114,2023,0.003153,0.00289
0,Deaths,Jamaica,Number,0.298324,2022,0.299252,0.288693
0,Deaths,Jamaica,Percent,0.000013,2022,0.000012,0.000013
0,Deaths,Jamaica,Rate,0.0105,2022,0.010532,0.010161
0,Deaths,'Saint Kitts and Nevis',Number,0.004712,2020,0.004567,0.004638
0,Deaths,'Saint Kitts and Nevis',Percent,0.000011,2020,0.00001,0.000011
0,Deaths,'Saint Kitts and Nevis',Rate,0.009748,2020,0.009448,0.009595
0,Deaths,Germany,Percent,0.000017,2023,0.000016,0.000016
0,Deaths,Germany,Rate,0.021694,2023,0.02106,0.020549
0,Deaths,Sudan,Percent,0.000005,2022,0.000006,0.000005
0,Deaths,Sudan,Rate,0.004013,2022,0.0046,0.003303
0,Deaths,Afghanistan,Number,0.664828,2021,0.720143,0.540588
0,Deaths,Afghanistan,Percent,0.000002,2021,0.000002,0.000001
0,Deaths,Afghanistan,Rate,0.001862,2021,0.002017,0.001514
0,Deaths,Nepal,Percent,0.000005,2022,0.000005,0.000005
0,Deaths,Nepal,Rate,0.003343,2022,0.003515,0.003046
0,Deaths,Dominica,Number,0.009823,2021,0.009956,0.009288
0,Deaths,Dominica,Percent,0.000013,2021,0.000013,0.000012
0,Deaths,Dominica,Rate,0.014116,2021,0.014307,0.013347
0,Deaths,Djibouti,Number,0.057949,2021,0.063446,0.048687
0,Deaths,Djibouti,Percent,0.000005,2021,0.000005,0.000004
0,Deaths,Djibouti,Rate,0.004392,2021,0.004809,0.00369
0,Deaths,Liberia,Number,0.22876,2022,0.252249,0.191553
0,Deaths,Liberia,Percent,0.000004,2022,0.000004,0.000003
0,Deaths,Liberia,Rate,0.00408,2022,0.004499,0.003417
0,Deaths,Austria,Percent,0.000015,2021,0.000015,0.000015
0,Deaths,Austria,Rate,0.016907,2021,0.016155,0.016376
0,Deaths,Palestine,Number,0.156073,2020,0.151053,0.150217
0,Deaths,Palestine,Percent,0.000009,2020,0.000008,0.000008
0,Deaths,Palestine,Rate,0.003031,2020,0.002933,0.002917
0,Deaths,'Viet Nam',Percent,0.00001,2022,0.00001,0.000009
0,Deaths,'Viet Nam',Rate,0.007307,2022,0.0075,0.006616
0,Deaths,'Sao Tome and Principe',Number,0.009638,2022,0.010646,0.00826
0,Deaths,'Sao Tome and Principe',Percent,0.000006,2022,0.000007,0.000006
0,Deaths,'Sao Tome and Principe',Rate,0.004395,2022,0.004854,0.003766
0,Deaths,Mexico,Percent,0.000007,2022,0.000006,0.000007
0,Deaths,Mexico,Rate,0.005256,2022,0.004938,0.005317
0,Deaths,Indonesia,Percent,0.000007,2022,0.000007,0.000007
0,Deaths,Indonesia,Rate,0.005467,2022,0.005673,0.005033
0,Deaths,Grenada,Number,0.012755,2022,0.012681,0.012276
0,Deaths,Grenada,Percent,0.000011,2022,0.00001,0.000011
0,Deaths,Grenada,Rate,0.011197,2022,0.011132,0.010776
0,Deaths,Zimbabwe,Number,0.668172,2021,0.688203,0.619073
0,Deaths,Zimbabwe,Percent,0.000003,2021,0.000003,0.000003
0,Deaths,Zimbabwe,Rate,0.004302,2021,0.004431,0.003986
0,Deaths,Tonga,Number,0.008947,2023,0.009427,0.008077
0,Deaths,Tonga,Percent,0.000011,2023,0.000011,0.00001
0,Deaths,Tonga,Rate,0.00857,2023,0.00903,0.007737
0,Deaths,'Micronesia (Federated States of)',Number,0.006906,2021,0.00709,0.006405
0,Deaths,'Micronesia (Federated States of)',Percent,0.000006,2021,0.000006,0.000006
0,Deaths,'Micronesia (Federated States of)',Rate,0.006665,2021,0.006842,0.006182
0,Deaths,Portugal,Percent,0.000015,2021,0.000014,0.000015
0,Deaths,Portugal,Rate,0.019061,2021,0.018281,0.018356
0,Deaths,Greece,Percent,0.000016,2020,0.000015,0.000016
0,Deaths,Greece,Rate,0.021054,2020,0.0202,0.020256
0,Deaths,Czechia,Percent,0.000016,2023,0.000015,0.000016
0,Deaths,Czechia,Rate,0.017642,2023,0.016748,0.017414
0,Deaths,'Cook Islands',Number,0.002168,2022,0.002238,0.001986
0,Deaths,'Cook Islands',Percent,0.000013,2022,0.000014,0.000012
0,Deaths,'Cook Islands',Rate,0.014407,2022,0.014876,0.013197
0,Deaths,Uganda,Percent,0.000005,2021,0.000005,0.000005
0,Deaths,Uganda,Rate,0.004768,2021,0.004857,0.004426
0,Deaths,'Cabo Verde',Number,0.037126,2023,0.038952,0.033688
0,Deaths,'Cabo Verde',Percent,0.000012,2023,0.000012,0.000011
0,Deaths,'Cabo Verde',Rate,0.007504,2023,0.007873,0.006809
0,Deaths,Eritrea,Number,0.328579,2021,0.340498,0.305095
0,Deaths,Eritrea,Percent,0.000005,2021,0.000005,0.000004
0,Deaths,Eritrea,Rate,0.004883,2021,0.00506,0.004534
0,Deaths,Benin,Number,0.312283,2022,0.334425,0.268661
0,Deaths,Benin,Percent,0.000002,2022,0.000002,0.000002
0,Deaths,Benin,Rate,0.00226,2022,0.00242,0.001944
0,Deaths,Ireland,Number,0.632402,2021,0.605931,0.611342
0,Deaths,Ireland,Percent,0.000018,2021,0.000017,0.000018
0,Deaths,Ireland,Rate,0.012187,2021,0.011677,0.011782
0,Deaths,'Dominican Republic',Number,0.78437,2021,0.779636,0.723511
0,Deaths,'Dominican Republic',Percent,0.000009,2021,0.000009,0.000008
0,Deaths,'Dominican Republic',Rate,0.007121,2021,0.007078,0.006568
0,Deaths,'Brunei Darussalam',Number,0.030633,2020,0.030074,0.029155
0,Deaths,'Brunei Darussalam',Percent,0.000016,2020,0.000016,0.000016
0,Deaths,'Brunei Darussalam',Rate,0.006843,2020,0.006718,0.006513
0,Deaths,'South Africa',Percent,0.000004,2021,0.000004,0.000004
0,Deaths,'South Africa',Rate,0.006418,2021,0.006397,0.006249
0,Deaths,Nicaragua,Number,0.286584,2023,0.293645,0.26966
0,Deaths,Nicaragua,Percent,0.000009,2023,0.000009,0.000008
0,Deaths,Nicaragua,Rate,0.004207,2023,0.00431,0.003958
0,Deaths,Senegal,Number,0.496206,2022,0.527999,0.450452
0,Deaths,Senegal,Percent,0.000004,2022,0.000004,0.000004
0,Deaths,Senegal,Rate,0.002733,2022,0.002908,0.002481
0,Deaths,Samoa,Number,0.006659,2020,0.007341,0.005747
0,Deaths,Samoa,Percent,0.000004,2020,0.000004,0.000003
0,Deaths,Samoa,Rate,0.003144,2020,0.003466,0.002714
0,Deaths,Montenegro,Number,0.108073,2018,0.107878,0.099551
0,Deaths,Montenegro,Percent,0.000015,2018,0.000014,0.000013
0,Deaths,Montenegro,Rate,0.016619,2018,0.016589,0.015308
0,Deaths,Samoa,Number,0.007449,2022,0.008093,0.006315
0,Deaths,Samoa,Percent,0.000004,2022,0.000005,0.000004
0,Deaths,Samoa,Rate,0.003438,2022,0.003735,0.002915
0,Deaths,Mozambique,Number,0.707608,2023,0.759544,0.598613
0,Deaths,Mozambique,Percent,0.000002,2023,0.000002,0.000002
0,Deaths,Mozambique,Rate,0.002124,2023,0.002279,0.001796
0,Deaths,'Iran (Islamic Republic of)',Percent,0.000008,2021,0.000007,0.000007
0,Deaths,'Iran (Islamic Republic of)',Rate,0.005011,2021,0.004972,0.004834
0,Deaths,Belgium,Percent,0.000017,2021,0.000016,0.000017
0,Deaths,Belgium,Rate,0.017791,2021,0.017179,0.01698
0,Deaths,'San Marino',Number,0.00484,2021,0.004971,0.004404
0,Deaths,'San Marino',Percent,0.000015,2021,0.000015,0.000014
0,Deaths,'San Marino',Rate,0.013829,2021,0.014202,0.012583
0,Deaths,'Saint Lucia',Number,0.017759,2022,0.017701,0.017034
0,Deaths,'Saint Lucia',Percent,0.000012,2022,0.000011,0.000012
0,Deaths,'Saint Lucia',Rate,0.009953,2022,0.009921,0.009547
0,Deaths,Finland,Number,0.998992,2022,0.963807,0.947034
0,Deaths,Finland,Percent,0.000015,2022,0.000014,0.000014
0,Deaths,Finland,Rate,0.01801,2022,0.017375,0.017073
0,Deaths,'Saint Vincent and the Grenadines',Number,0.01332,2023,0.013441,0.012626
0,Deaths,'Saint Vincent and the Grenadines',Percent,0.000012,2023,0.000011,0.000012
0,Deaths,'Saint Vincent and the Grenadines',Rate,0.011474,2023,0.011578,0.010875
0,Deaths,Ethiopia,Percent,0.000005,2021,0.000006,0.000005
0,Deaths,Ethiopia,Rate,0.005181,2021,0.005355,0.004869
0,Deaths,Oman,Number,0.105689,2023,0.110605,0.093658
0,Deaths,Oman,Percent,0.000008,2023,0.000008,0.000007
0,Deaths,Oman,Rate,0.002057,2023,0.002153,0.001823
0,Deaths,Colombia,Percent,0.00001,2022,0.00001,0.000011
0,Deaths,Colombia,Rate,0.006454,2022,0.006123,0.006432
0,Deaths,Nicaragua,Number,0.30474,2022,0.31246,0.292817
0,Deaths,Nicaragua,Percent,0.000008,2022,0.000008,0.000008
0,Deaths,Nicaragua,Rate,0.004525,2022,0.004639,0.004348
0,Deaths,Monaco,Number,0.017338,2023,0.018973,0.014631
0,Deaths,Monaco,Percent,0.000031,2023,0.000033,0.000027
0,Deaths,Monaco,Rate,0.044578,2023,0.048783,0.037617
0,Deaths,Belarus,Percent,0.000009,2021,0.000009,0.000009
0,Deaths,Belarus,Rate,0.014065,2021,0.013451,0.013908
0,Deaths,Bahamas,Number,0.046972,2022,0.045372,0.046572
0,Deaths,Bahamas,Percent,0.000013,2022,0.000012,0.000013
0,Deaths,Bahamas,Rate,0.011465,2022,0.011074,0.011367
0,Deaths,Uruguay,Number,0.689183,2023,0.659187,0.667658
0,Deaths,Uruguay,Percent,0.000019,2023,0.000018,0.000018
0,Deaths,Uruguay,Rate,0.020255,2023,0.019373,0.019622
0,Deaths,Argentina,Percent,0.000013,2022,0.000012,0.000013
0,Deaths,Argentina,Rate,0.012143,2022,0.011499,0.012066
0,Deaths,Rwanda,Number,0.850962,2023,0.889413,0.761884
0,Deaths,Rwanda,Percent,0.000007,2023,0.000008,0.000007
0,Deaths,Rwanda,Rate,0.006105,2023,0.006381,0.005466
0,Deaths,Mali,Number,0.869822,2022,0.900151,0.787897
0,Deaths,Mali,Percent,0.000003,2022,0.000003,0.000003
0,Deaths,Mali,Rate,0.003697,2022,0.003826,0.003349
0,Deaths,Iceland,Number,0.04542,2020,0.044015,0.043173
0,Deaths,Iceland,Percent,0.000019,2020,0.000018,0.000018
0,Deaths,Iceland,Rate,0.012497,2020,0.01211,0.011879
0,Deaths,'Antigua and Barbuda',Number,0.007893,2021,0.007734,0.007742
0,Deaths,'Antigua and Barbuda',Percent,0.000011,2021,0.00001,0.000011
0,Deaths,'Antigua and Barbuda',Rate,0.008725,2021,0.008549,0.008558
0,Deaths,'Lao Peoples Democratic Republic',Number,0.390838,2022,0.405515,0.35759
0,Deaths,'Lao Peoples Democratic Republic',Percent,0.000005,2022,0.000006,0.000005
0,Deaths,'Lao Peoples Democratic Republic',Rate,0.005255,2022,0.005452,0.004808
0,Deaths,Burundi,Number,0.408888,2019,0.426224,0.37105
0,Deaths,Burundi,Percent,0.000003,2019,0.000003,0.000003
0,Deaths,Burundi,Rate,0.00329,2019,0.00343,0.002986
0,Deaths,Guam,Number,0.013163,2023,0.012881,0.0128
0,Deaths,Guam,Percent,0.00001,2023,0.000009,0.00001
0,Deaths,Guam,Rate,0.008351,2023,0.008172,0.008121
0,Deaths,Iraq,Percent,0.000008,2021,0.000008,0.000007
0,Deaths,Iraq,Rate,0.005207,2021,0.00528,0.004865
0,Deaths,Turkmenistan,Number,0.257787,2021,0.255127,0.248508
0,Deaths,Turkmenistan,Percent,0.000005,2021,0.000005,0.000005
0,Deaths,Turkmenistan,Rate,0.004705,2021,0.004657,0.004536
0,Deaths,'Cook Islands',Number,0.002031,2020,0.002111,0.001879
0,Deaths,'Cook Islands',Percent,0.000012,2020,0.000013,0.000011
0,Deaths,'Cook Islands',Rate,0.012805,2020,0.013312,0.011845
0,Deaths,Spain,Percent,0.000017,2021,0.000016,0.000016
0,Deaths,Spain,Rate,0.016758,2021,0.016155,0.01596
0,Deaths,Bangladesh,Percent,0.000006,2021,0.000006,0.000006
0,Deaths,Bangladesh,Rate,0.005482,2021,0.005702,0.005085
0,Deaths,'Cook Islands',Number,0.00226,2021,0.00235,0.002056
0,Deaths,'Cook Islands',Percent,0.000012,2021,0.000013,0.000012
0,Deaths,'Cook Islands',Rate,0.014646,2021,0.015231,0.013325
0,Deaths,'Saint Vincent and the Grenadines',Number,0.012545,2022,0.012568,0.012091
0,Deaths,'Saint Vincent and the Grenadines',Percent,0.000011,2022,0.000011,0.000011
0,Deaths,'Saint Vincent and the Grenadines',Rate,0.010805,2022,0.010825,0.010414
0,Deaths,Suriname,Number,0.047208,2023,0.046765,0.044882
0,Deaths,Suriname,Percent,0.000009,2023,0.000009,0.000009
0,Deaths,Suriname,Rate,0.007949,2023,0.007874,0.007557
0,Deaths,Zambia,Number,0.763272,2021,0.789558,0.701442
0,Deaths,Zambia,Percent,0.000003,2021,0.000003,0.000003
0,Deaths,Zambia,Rate,0.003874,2021,0.004008,0.003561
0,Deaths,Israel,Number,0.910749,2021,0.874996,0.865341
0,Deaths,Israel,Percent,0.000017,2021,0.000016,0.000016
0,Deaths,Israel,Rate,0.009415,2021,0.009045,0.008945
0,Deaths,Grenada,Number,0.013338,2021,0.013058,0.013077
0,Deaths,Grenada,Percent,0.000009,2021,0.000009,0.00001
0,Deaths,Grenada,Rate,0.011702,2021,0.011456,0.011473
0,Deaths,Kenya,Percent,0.000005,2021,0.000005,0.000005
0,Deaths,Kenya,Rate,0.004412,2021,0.004516,0.004146
0,Deaths,'San Marino',Number,0.004649,2020,0.004782,0.004306
0,Deaths,'San Marino',Percent,0.000014,2020,0.000014,0.000013
0,Deaths,'San Marino',Rate,0.013372,2020,0.013754,0.012384
0,Deaths,Chad,Number,0.534543,2023,0.582822,0.467036
0,Deaths,Chad,Percent,0.000002,2023,0.000002,0.000001
0,Deaths,Chad,Rate,0.00277,2023,0.003021,0.002421
0,Deaths,Madagascar,Percent,0.000005,2022,0.000005,0.000005
0,Deaths,Madagascar,Rate,0.004883,2022,0.005026,0.004486
0,Deaths,Myanmar,Percent,0.000005,2023,0.000005,0.000005
0,Deaths,Myanmar,Rate,0.006379,2023,0.00675,0.005786
0,Deaths,'Papua New Guinea',Number,0.37412,2021,0.392341,0.33147
0,Deaths,'Papua New Guinea',Percent,0.000004,2021,0.000005,0.000004
0,Deaths,'Papua New Guinea',Rate,0.003562,2021,0.003736,0.003156
0,Deaths,Hungary,Percent,0.000015,2023,0.000014,0.000015
0,Deaths,Hungary,Rate,0.021559,2023,0.020383,0.021542
0,Deaths,Panama,Number,0.266378,2023,0.258267,0.257743
0,Deaths,Panama,Percent,0.000011,2023,0.00001,0.000011
0,Deaths,Panama,Rate,0.00634,2023,0.006147,0.006135
0,Deaths,Seychelles,Number,0.009486,2020,0.009473,0.009181
0,Deaths,Seychelles,Percent,0.000013,2020,0.000012,0.000012
0,Deaths,Seychelles,Rate,0.009113,2020,0.0091,0.00882
0,Deaths,Guinea,Number,0.401571,2021,0.424943,0.361097
0,Deaths,Guinea,Percent,0.000002,2021,0.000002,0.000002
0,Deaths,Guinea,Rate,0.002983,2021,0.003156,0.002682
0,Deaths,Panama,Number,0.252782,2022,0.242603,0.248304
0,Deaths,Panama,Percent,0.00001,2022,0.000009,0.00001
0,Deaths,Panama,Rate,0.006253,2022,0.006001,0.006142
0,Deaths,'Burkina Faso',Number,0.584533,2022,0.613152,0.519227
0,Deaths,'Burkina Faso',Percent,0.000003,2022,0.000003,0.000003
0,Deaths,'Burkina Faso',Rate,0.002477,2022,0.002598,0.0022
0,Deaths,Angola,Percent,0.000003,2020,0.000003,0.000003
0,Deaths,Angola,Rate,0.002993,2020,0.003158,0.002703
0,Deaths,Fiji,Number,0.062291,2022,0.063892,0.058587
0,Deaths,Fiji,Percent,0.000006,2022,0.000006,0.000006
0,Deaths,Fiji,Rate,0.006667,2022,0.006839,0.006271
0,Deaths,'Costa Rica',Number,0.422605,2022,0.403836,0.417026
0,Deaths,'Costa Rica',Percent,0.000013,2022,0.000013,0.000014
0,Deaths,'Costa Rica',Rate,0.008172,2022,0.007809,0.008064
0,Deaths,Mauritania,Number,0.197102,2022,0.215116,0.169277
0,Deaths,Mauritania,Percent,0.000006,2022,0.000006,0.000005
0,Deaths,Mauritania,Rate,0.004375,2022,0.004775,0.003757
0,Deaths,'Sierra Leone',Number,0.273461,2022,0.292366,0.242791
0,Deaths,'Sierra Leone',Percent,0.000002,2022,0.000002,0.000002
0,Deaths,'Sierra Leone',Rate,0.003447,2022,0.003685,0.00306
0,Deaths,Niger,Number,0.488137,2021,0.547874,0.434016
0,Deaths,Niger,Percent,0.000001,2021,0.000001,0.000001
0,Deaths,Niger,Rate,0.001972,2021,0.002214,0.001754
0,Deaths,Togo,Number,0.281901,2022,0.300651,0.25154
0,Deaths,Togo,Percent,0.000003,2022,0.000004,0.000003
0,Deaths,Togo,Rate,0.003355,2022,0.003578,0.002993
0,Deaths,Brazil,Percent,0.000012,2023,0.000011,0.000012
0,Deaths,Brazil,Rate,0.008968,2023,0.008557,0.008786
0,Deaths,Croatia,Number,0.887256,2022,0.84202,0.882292
0,Deaths,Croatia,Percent,0.000014,2022,0.000013,0.000014
0,Deaths,Croatia,Rate,0.022547,2022,0.021397,0.022421
0,Deaths,Tokelau,Number,0.000092,2021,0.000101,0.000081
0,Deaths,Tokelau,Percent,0.000006,2021,0.000006,0.000005
0,Deaths,Tokelau,Rate,0.005812,2021,0.00641,0.005127
0,Deaths,Benin,Number,0.301124,2021,0.324037,0.261746
0,Deaths,Benin,Percent,0.000002,2021,0.000002,0.000002
0,Deaths,Benin,Rate,0.002244,2021,0.002415,0.001951
0,Deaths,Tokelau,Number,0.000088,2020,0.000095,0.00008
0,Deaths,Tokelau,Percent,0.000006,2020,0.000007,0.000006
0,Deaths,Tokelau,Rate,0.005614,2020,0.006036,0.005089
0,Deaths,Nauru,Number,0.000986,2023,0.0011,0.000864
0,Deaths,Nauru,Percent,0.000008,2023,0.000008,0.000007
0,Deaths,Nauru,Rate,0.008,2023,0.00893,0.007011
0,Deaths,France,Percent,0.000019,2022,0.000018,0.000018
0,Deaths,France,Rate,0.019674,2022,0.018951,0.01869
0,Deaths,Barbados,Number,0.054455,2022,0.052855,0.053562
0,Deaths,Barbados,Percent,0.000014,2022,0.000013,0.000014
0,Deaths,Barbados,Rate,0.018093,2022,0.017562,0.017797
0,Deaths,'North Macedonia',Number,0.312625,2023,0.309133,0.299836
0,Deaths,'North Macedonia',Percent,0.000014,2023,0.000013,0.000013
0,Deaths,'North Macedonia',Rate,0.016878,2023,0.01669,0.016188
0,Deaths,'Solomon Islands',Number,0.051998,2022,0.054452,0.047325
0,Deaths,'Solomon Islands',Percent,0.000007,2022,0.000007,0.000006
0,Deaths,'Solomon Islands',Rate,0.00624,2022,0.006534,0.005679
0,Deaths,Armenia,Number,0.304249,2023,0.296866,0.295935
0,Deaths,Armenia,Percent,0.000011,2023,0.000011,0.000011
0,Deaths,Armenia,Rate,0.010035,2023,0.009791,0.009761
0,Deaths,'Central African Republic',Number,0.168136,2020,0.187611,0.133431
0,Deaths,'Central African Republic',Percent,0.000001,2020,0.000001,0.000001
0,Deaths,'Central African Republic',Rate,0.002758,2020,0.003077,0.002188
0,Deaths,Suriname,Number,0.045904,2022,0.045241,0.043715
0,Deaths,Suriname,Percent,0.000009,2022,0.000008,0.000008
0,Deaths,Suriname,Rate,0.007767,2022,0.007655,0.007397
0,Deaths,Ireland,Number,0.647579,2020,0.619429,0.62444
0,Deaths,Ireland,Percent,0.000019,2020,0.000018,0.000018
0,Deaths,Ireland,Rate,0.012646,2020,0.012096,0.012194
0,Deaths,Uzbekistan,Percent,0.000005,2022,0.000005,0.000005
0,Deaths,Uzbekistan,Rate,0.003686,2022,0.00355,0.003691
0,Deaths,'Venezuela (Bolivarian Republic of)',Percent,0.000011,2023,0.00001,0.000011
0,Deaths,'Venezuela (Bolivarian Republic of)',Rate,0.009911,2023,0.009752,0.009567
0,Deaths,Bahamas,Number,0.055873,2021,0.05353,0.055597
0,Deaths,Bahamas,Percent,0.000011,2021,0.000011,0.000012
0,Deaths,Bahamas,Rate,0.013728,2021,0.013152,0.01366
0,Deaths,'Côte dIvoire',Percent,0.000004,2023,0.000004,0.000003
0,Deaths,'Côte dIvoire',Rate,0.003362,2023,0.003578,0.002957
0,Deaths,Jordan,Number,0.50345,2021,0.493817,0.485777
0,Deaths,Jordan,Percent,0.000008,2021,0.000008,0.000008
0,Deaths,Jordan,Rate,0.004066,2021,0.003988,0.003924
0,Deaths,Estonia,Number,0.241897,2021,0.229372,0.239481
0,Deaths,Estonia,Percent,0.000012,2021,0.000011,0.000012
0,Deaths,Estonia,Rate,0.018134,2021,0.017195,0.017953
0,Deaths,Greenland,Number,0.012345,2021,0.012442,0.011935
0,Deaths,Greenland,Percent,0.00002,2021,0.00002,0.000019
0,Deaths,Greenland,Rate,0.021882,2021,0.022056,0.021157
0,Deaths,Bhutan,Number,0.035145,2021,0.037117,0.031649
0,Deaths,Bhutan,Percent,0.000006,2021,0.000007,0.000006
0,Deaths,Bhutan,Rate,0.004676,2021,0.004938,0.004211
0,Deaths,Philippines,Percent,0.000007,2023,0.000006,0.000007
0,Deaths,Philippines,Rate,0.00448,2023,0.004423,0.004364
0,Deaths,Guyana,Number,0.051135,2021,0.049608,0.050445
0,Deaths,Guyana,Percent,0.000006,2021,0.000005,0.000006
0,Deaths,Guyana,Rate,0.006288,2021,0.0061,0.006203
0,Deaths,Monaco,Number,0.016309,2022,0.017496,0.013836
0,Deaths,Monaco,Percent,0.000028,2022,0.00003,0.000025
0,Deaths,Monaco,Rate,0.0422,2022,0.04527,0.035801
0,Deaths,Malawi,Percent,0.000005,2022,0.000006,0.000005
0,Deaths,Malawi,Rate,0.005073,2022,0.005536,0.004445
0,Deaths,Cambodia,Number,0.625885,2021,0.653801,0.573652
0,Deaths,Cambodia,Percent,0.000005,2021,0.000006,0.000005
0,Deaths,Cambodia,Rate,0.003731,2021,0.003898,0.00342
0,Deaths,Qatar,Number,0.0348,2023,0.037675,0.031668
0,Deaths,Qatar,Percent,0.00001,2023,0.00001,0.000009
0,Deaths,Qatar,Rate,0.001121,2023,0.001213,0.00102
0,Deaths,Sudan,Percent,0.000005,2021,0.000005,0.000004
0,Deaths,Sudan,Rate,0.003929,2021,0.004413,0.003246
0,Deaths,Sweden,Percent,0.000017,2021,0.000016,0.000016
0,Deaths,Sweden,Rate,0.016029,2021,0.015489,0.015033
0,Deaths,Guinea-Bissau,Number,0.054325,2021,0.057297,0.048003
0,Deaths,Guinea-Bissau,Percent,0.000002,2021,0.000002,0.000002
0,Deaths,Guinea-Bissau,Rate,0.002617,2021,0.00276,0.002312
0,Deaths,Germany,Percent,0.000016,2022,0.000015,0.000015
0,Deaths,Germany,Rate,0.021472,2022,0.020626,0.020571
0,Deaths,Latvia,Number,0.386299,2021,0.364941,0.387807
0,Deaths,Latvia,Percent,0.00001,2021,0.000009,0.00001
0,Deaths,Latvia,Rate,0.019923,2021,0.018822,0.020001
0,Deaths,Greenland,Number,0.011552,2022,0.011626,0.011093
0,Deaths,Greenland,Percent,0.00002,2022,0.00002,0.00002
0,Deaths,Greenland,Rate,0.020425,2022,0.020556,0.019612
0,Deaths,Honduras,Number,0.329426,2021,0.333778,0.309708
0,Deaths,Honduras,Percent,0.000004,2021,0.000004,0.000004
0,Deaths,Honduras,Rate,0.0032,2021,0.003242,0.003008
0,Deaths,Tuvalu,Number,0.001065,2021,0.001153,0.000936
0,Deaths,Tuvalu,Percent,0.000007,2021,0.000007,0.000006
0,Deaths,Tuvalu,Rate,0.009697,2021,0.010495,0.008518
0,Deaths,Malaysia,Percent,0.00001,2022,0.000009,0.00001
0,Deaths,Malaysia,Rate,0.00663,2022,0.006527,0.006441
0,Deaths,Cyprus,Number,0.179719,2021,0.177786,0.169912
0,Deaths,Cyprus,Percent,0.000015,2021,0.000015,0.000015
0,Deaths,Cyprus,Rate,0.013301,2021,0.013157,0.012575
0,Deaths,Canada,Percent,0.000019,2023,0.000018,0.000018
0,Deaths,Canada,Rate,0.016924,2023,0.016356,0.016053
0,Deaths,Samoa,Number,0.007203,2021,0.007992,0.006145
0,Deaths,Samoa,Percent,0.000004,2021,0.000004,0.000003
0,Deaths,Samoa,Rate,0.003363,2021,0.003731,0.002869
0,Deaths,Kiribati,Number,0.0042,2022,0.004527,0.003628
0,Deaths,Kiribati,Percent,0.000005,2022,0.000005,0.000004
0,Deaths,Kiribati,Rate,0.003337,2022,0.003597,0.002883
0,Deaths,'El Salvador',Number,0.504358,2022,0.514113,0.480223
0,Deaths,'El Salvador',Percent,0.000009,2022,0.000009,0.000009
0,Deaths,'El Salvador',Rate,0.008153,2022,0.00831,0.007763
0,Deaths,Barbados,Number,0.052241,2021,0.050718,0.051435
0,Deaths,Barbados,Percent,0.000014,2021,0.000013,0.000014
0,Deaths,Barbados,Rate,0.017359,2021,0.016853,0.017092
0,Deaths,Italy,Percent,0.000016,2021,0.000015,0.000015
0,Deaths,Italy,Rate,0.02048,2021,0.019917,0.019191
0,Deaths,Niue,Number,0.000164,2023,0.000177,0.000147
0,Deaths,Niue,Percent,0.000008,2023,0.000008,0.000007
0,Deaths,Niue,Rate,0.009834,2023,0.010596,0.008786
0,Deaths,Cameroon,Percent,0.000003,2022,0.000003,0.000003
0,Deaths,Cameroon,Rate,0.003363,2022,0.003558,0.003014
0,Deaths,Azerbaijan,Number,0.720702,2023,0.755487,0.665587
0,Deaths,Azerbaijan,Percent,0.000009,2023,0.00001,0.000009
0,Deaths,Azerbaijan,Rate,0.006848,2023,0.007179,0.006325
0,Deaths,Congo,Number,0.198589,2020,0.213471,0.176639
0,Deaths,Congo,Percent,0.000004,2020,0.000004,0.000003
0,Deaths,Congo,Rate,0.003473,2020,0.003733,0.003089
0,Deaths,'Burkina Faso',Number,0.491205,2021,0.517839,0.442001
0,Deaths,'Burkina Faso',Percent,0.000002,2021,0.000002,0.000002
0,Deaths,'Burkina Faso',Rate,0.002141,2021,0.002257,0.001927
0,Deaths,Nauru,Number,0.000948,2022,0.001054,0.000835
0,Deaths,Nauru,Percent,0.000007,2022,0.000008,0.000006
0,Deaths,Nauru,Rate,0.007809,2022,0.008689,0.006884
0,Deaths,Montenegro,Number,0.112892,2023,0.113769,0.105532
0,Deaths,Montenegro,Percent,0.000015,2023,0.000015,0.000014
0,Deaths,Montenegro,Rate,0.017259,2023,0.017393,0.016134
0,Deaths,Somalia,Number,0.425346,2020,0.449541,0.374509
0,Deaths,Somalia,Percent,0.000001,2020,0.000001,0.000001
0,Deaths,Somalia,Rate,0.002171,2020,0.002295,0.001912
0,Deaths,'Venezuela (Bolivarian Republic of)',Percent,0.00001,2022,0.00001,0.00001
0,Deaths,'Venezuela (Bolivarian Republic of)',Rate,0.009322,2022,0.009184,0.008977
0,Deaths,Czechia,Percent,0.000015,2022,0.000014,0.000015
0,Deaths,Czechia,Rate,0.018568,2022,0.017607,0.018353
0,Deaths,Paraguay,Number,0.465416,2023,0.46245,0.429309
0,Deaths,Paraguay,Percent,0.00001,2023,0.000009,0.000009
0,Deaths,Paraguay,Rate,0.007361,2023,0.007314,0.00679
0,Deaths,Tuvalu,Number,0.00099,2020,0.001063,0.000879
0,Deaths,Tuvalu,Percent,0.000007,2020,0.000007,0.000006
0,Deaths,Tuvalu,Rate,0.009014,2020,0.009678,0.008003
0,Deaths,'Sri Lanka',Percent,0.000009,2023,0.000008,0.000008
0,Deaths,'Sri Lanka',Rate,0.007662,2023,0.00762,0.007246
0,Deaths,'Trinidad and Tobago',Number,0.16782,2023,0.163854,0.164559
0,Deaths,'Trinidad and Tobago',Percent,0.000011,2023,0.000011,0.000011
0,Deaths,'Trinidad and Tobago',Rate,0.012098,2023,0.011812,0.011863
0,Deaths,Israel,Number,0.90055,2020,0.868476,0.858956
0,Deaths,Israel,Percent,0.000017,2020,0.000017,0.000017
0,Deaths,Israel,Rate,0.00946,2020,0.009122,0.009023
0,Deaths,Guam,Number,0.012826,2022,0.012526,0.012539
0,Deaths,Guam,Percent,0.000009,2022,0.000009,0.000009
0,Deaths,Guam,Rate,0.008097,2022,0.007908,0.007916
0,Deaths,India,Percent,0.000005,2021,0.000005,0.000005
0,Deaths,India,Rate,0.004795,2021,0.004755,0.004669
0,Deaths,Indonesia,Percent,0.000006,2021,0.000006,0.000006
0,Deaths,Indonesia,Rate,0.005793,2021,0.005941,0.005422
0,Deaths,Vanuatu,Number,0.010056,2022,0.010783,0.008957
0,Deaths,Vanuatu,Percent,0.000004,2022,0.000005,0.000004
0,Deaths,Vanuatu,Rate,0.00311,2022,0.003335,0.00277
0,Deaths,'Marshall Islands',Number,0.003236,2022,0.003471,0.002894
0,Deaths,'Marshall Islands',Percent,0.000008,2022,0.000008,0.000007
0,Deaths,'Marshall Islands',Rate,0.007593,2022,0.008142,0.006789
0,Deaths,Mauritius,Number,0.104797,2022,0.100242,0.10439
0,Deaths,Mauritius,Percent,0.000007,2022,0.000006,0.000007
0,Deaths,Mauritius,Rate,0.008208,2022,0.007851,0.008176
0,Deaths,Maldives,Number,0.015945,2022,0.01602,0.014928
0,Deaths,Maldives,Percent,0.000007,2022,0.000007,0.000007
0,Deaths,Maldives,Rate,0.00301,2022,0.003024,0.002818
0,Deaths,'American Samoa',Number,0.00429,2022,0.004455,0.003856
0,Deaths,'American Samoa',Percent,0.00001,2022,0.00001,0.000009
0,Deaths,'American Samoa',Rate,0.00866,2022,0.008993,0.007784
0,Deaths,Nigeria,Percent,0.000003,2021,0.000003,0.000002
0,Deaths,Nigeria,Rate,0.002766,2021,0.002995,0.002419
0,Deaths,'United States of America',Percent,0.000014,2023,0.000013,0.000013
0,Deaths,'United States of America',Rate,0.013733,2023,0.013288,0.013138
0,Deaths,Guatemala,Number,0.733776,2022,0.70384,0.730996
0,Deaths,Guatemala,Percent,0.000007,2022,0.000006,0.000007
0,Deaths,Guatemala,Rate,0.004506,2022,0.004322,0.004489
0,Deaths,'Saudi Arabia',Number,0.856955,2023,0.953849,0.798476
0,Deaths,'Saudi Arabia',Percent,0.000008,2023,0.000008,0.000007
0,Deaths,'Saudi Arabia',Rate,0.002597,2023,0.00289,0.00242
0,Deaths,Lithuania,Number,0.537606,2021,0.504601,0.541112
0,Deaths,Lithuania,Percent,0.00001,2021,0.000009,0.00001
0,Deaths,Lithuania,Rate,0.019054,2021,0.017884,0.019179
0,Deaths,Japan,Percent,0.00002,2023,0.00002,0.000018
0,Deaths,Japan,Rate,0.027333,2023,0.027401,0.023882
0,Deaths,Haiti,Number,0.671546,2021,0.713561,0.606917
0,Deaths,Haiti,Percent,0.000004,2021,0.000005,0.000004
0,Deaths,Haiti,Rate,0.005167,2021,0.00549,0.00467
0,Deaths,Chile,Percent,0.000015,2022,0.000014,0.000014
0,Deaths,Chile,Rate,0.011145,2022,0.010606,0.010839
0,Deaths,Hungary,Percent,0.000014,2022,0.000013,0.000014
0,Deaths,Hungary,Rate,0.021767,2022,0.020543,0.021827
0,Deaths,Tonga,Number,0.008607,2022,0.009019,0.007789
0,Deaths,Tonga,Percent,0.00001,2022,0.000011,0.000009
0,Deaths,Tonga,Rate,0.008259,2022,0.008654,0.007474
0,Deaths,'Northern Mariana Islands',Number,0.005,2023,0.005194,0.004618
0,Deaths,'Northern Mariana Islands',Percent,0.000012,2023,0.000013,0.000012
0,Deaths,'Northern Mariana Islands',Rate,0.010554,2023,0.010963,0.009747
0,Deaths,Switzerland,Percent,0.000017,2021,0.000016,0.000016
0,Deaths,Switzerland,Rate,0.014449,2021,0.014008,0.013634
0,Deaths,Poland,Percent,0.000018,2023,0.000017,0.000018
0,Deaths,Poland,Rate,0.019662,2023,0.018703,0.019448
0,Deaths,Niue,Number,0.000157,2022,0.000169,0.000142
0,Deaths,Niue,Percent,0.000007,2022,0.000008,0.000007
0,Deaths,Niue,Rate,0.009471,2022,0.010163,0.008555
0,Deaths,Türkiye,Percent,0.000013,2023,0.000013,0.000012
0,Deaths,Türkiye,Rate,0.009489,2023,0.009732,0.008514
0,Deaths,Cameroon,Percent,0.000002,2021,0.000002,0.000002
0,Deaths,Cameroon,Rate,0.00319,2021,0.00335,0.002876
0,Deaths,'Lao Peoples Democratic Republic',Number,0.355695,2021,0.372377,0.326032
0,Deaths,'Lao Peoples Democratic Republic',Percent,0.000005,2021,0.000005,0.000005
0,Deaths,'Lao Peoples Democratic Republic',Rate,0.004838,2021,0.005065,0.004435
0,Deaths,Italy,Percent,0.000016,2020,0.000015,0.000015
0,Deaths,Italy,Rate,0.020904,2020,0.020276,0.019714
0,Deaths,Georgia,Number,0.542204,2023,0.533365,0.52261
0,Deaths,Georgia,Percent,0.000011,2023,0.000011,0.000011
0,Deaths,Georgia,Rate,0.01514,2023,0.014893,0.014593
0,Deaths,'United Republic of Tanzania',Percent,0.000004,2020,0.000004,0.000004
0,Deaths,'United Republic of Tanzania',Rate,0.003329,2020,0.003596,0.002964
0,Deaths,Palau,Number,0.002737,2023,0.002804,0.002545
0,Deaths,Palau,Percent,0.000013,2023,0.000013,0.000012
0,Deaths,Palau,Rate,0.0153,2023,0.015675,0.014223
0,Deaths,Liberia,Number,0.22377,2021,0.245818,0.190119
0,Deaths,Liberia,Percent,0.000003,2021,0.000003,0.000002
0,Deaths,Liberia,Rate,0.004092,2021,0.004495,0.003476
0,Deaths,'Trinidad and Tobago',Number,0.164443,2022,0.159514,0.162821
0,Deaths,'Trinidad and Tobago',Percent,0.000009,2022,0.000009,0.00001
0,Deaths,'Trinidad and Tobago',Rate,0.011829,2022,0.011474,0.011712
0,Deaths,'Viet Nam',Percent,0.000009,2021,0.000009,0.000008
0,Deaths,'Viet Nam',Rate,0.006845,2021,0.007088,0.006338
0,Deaths,Kuwait,Number,0.099346,2022,0.095436,0.098477
0,Deaths,Kuwait,Percent,0.00001,2022,0.000009,0.00001
0,Deaths,Kuwait,Rate,0.002174,2022,0.002088,0.002155
0,Deaths,Guam,Number,0.013541,2021,0.013271,0.013247
0,Deaths,Guam,Percent,0.000009,2021,0.000009,0.000009
0,Deaths,Guam,Rate,0.008496,2021,0.008327,0.008312
0,Deaths,Croatia,Number,0.890258,2021,0.841039,0.888374
0,Deaths,Croatia,Percent,0.000013,2021,0.000012,0.000013
0,Deaths,Croatia,Rate,0.022348,2021,0.021113,0.022301
0,Deaths,Nepal,Percent,0.000004,2021,0.000004,0.000003
0,Deaths,Nepal,Rate,0.003252,2021,0.00337,0.00301
0,Deaths,'Bolivia (Plurinational State of)',Percent,0.000012,2023,0.000013,0.000012
0,Deaths,'Bolivia (Plurinational State of)',Rate,0.008518,2023,0.008772,0.00799
0,Deaths,'North Macedonia',Number,0.317011,2022,0.309643,0.30559
0,Deaths,'North Macedonia',Percent,0.000013,2022,0.000012,0.000013
0,Deaths,'North Macedonia',Rate,0.016985,2022,0.01659,0.016373
0,Deaths,Fiji,Number,0.06497,2023,0.06728,0.060506
0,Deaths,Fiji,Percent,0.000007,2023,0.000007,0.000006
0,Deaths,Fiji,Rate,0.006924,2023,0.00717,0.006448
0,Deaths,Togo,Number,0.250105,2021,0.265301,0.222868
0,Deaths,Togo,Percent,0.000003,2021,0.000003,0.000003
0,Deaths,Togo,Rate,0.003032,2021,0.003217,0.002702
0,Deaths,Jamaica,Number,0.304272,2021,0.299572,0.298621
0,Deaths,Jamaica,Percent,0.000012,2021,0.000011,0.000012
0,Deaths,Jamaica,Rate,0.010722,2021,0.010556,0.010523
0,Deaths,'Antigua and Barbuda',Number,0.008216,2020,0.007996,0.008023
0,Deaths,'Antigua and Barbuda',Percent,0.000013,2020,0.000012,0.000012
0,Deaths,'Antigua and Barbuda',Rate,0.009098,2020,0.008854,0.008884
0,Deaths,'Republic of Korea',Percent,0.00002,2023,0.00002,0.000018
0,Deaths,'Republic of Korea',Rate,0.014314,2023,0.014473,0.013241
0,Deaths,Thailand,Percent,0.000014,2023,0.000015,0.000014
0,Deaths,Thailand,Rate,0.013955,2023,0.01476,0.013273
0,Deaths,Denmark,Percent,0.000021,2021,0.00002,0.000021
0,Deaths,Denmark,Rate,0.02185,2021,0.02103,0.021025
0,Deaths,'Sao Tome and Principe',Number,0.009722,2021,0.011356,0.007195
0,Deaths,'Sao Tome and Principe',Percent,0.000006,2021,0.000007,0.000004
0,Deaths,'Sao Tome and Principe',Rate,0.004489,2021,0.005243,0.003322
0,Deaths,Uganda,Percent,0.000005,2020,0.000005,0.000005
0,Deaths,Uganda,Rate,0.004284,2020,0.00448,0.003924
0,Deaths,Albania,Number,0.326715,2022,0.331461,0.305743
0,Deaths,Albania,Percent,0.000012,2022,0.000012,0.000011
0,Deaths,Albania,Rate,0.013015,2022,0.013204,0.01218
0,Deaths,'Northern Mariana Islands',Number,0.005013,2022,0.005182,0.004684
0,Deaths,'Northern Mariana Islands',Percent,0.000012,2022,0.000012,0.000011
0,Deaths,'Northern Mariana Islands',Rate,0.010532,2022,0.010886,0.009839
0,Deaths,Gambia,Number,0.05211,2023,0.058776,0.043437
0,Deaths,Gambia,Percent,0.000002,2023,0.000002,0.000002
0,Deaths,Gambia,Rate,0.002064,2023,0.002328,0.00172
0,Deaths,'United States Virgin Islands',Number,0.012338,2022,0.012159,0.011846
0,Deaths,'United States Virgin Islands',Percent,0.000012,2022,0.000011,0.000012
0,Deaths,'United States Virgin Islands',Rate,0.014381,2022,0.014173,0.013808
0,Deaths,Myanmar,Percent,0.000005,2022,0.000005,0.000005
0,Deaths,Myanmar,Rate,0.006161,2022,0.006525,0.0055
0,Deaths,Bermuda,Number,0.012357,2022,0.011991,0.012052
0,Deaths,Bermuda,Percent,0.000018,2022,0.000017,0.000017
0,Deaths,Bermuda,Rate,0.019489,2022,0.018912,0.019008
0,Deaths,'Solomon Islands',Number,0.04721,2021,0.049609,0.04304
0,Deaths,'Solomon Islands',Percent,0.000006,2021,0.000006,0.000005
0,Deaths,'Solomon Islands',Rate,0.005849,2021,0.006147,0.005333
0,Deaths,'Republic of Moldova',Number,0.407298,2022,0.390758,0.404402
0,Deaths,'Republic of Moldova',Percent,0.000009,2022,0.000008,0.000009
0,Deaths,'Republic of Moldova',Rate,0.011218,2022,0.010762,0.011138
0,Deaths,'Democratic Republic of the Congo',Percent,0.000005,2023,0.000005,0.000004
0,Deaths,'Democratic Republic of the Congo',Rate,0.0049,2023,0.005328,0.003977
0,Deaths,Brazil,Percent,0.000011,2022,0.00001,0.000011
0,Deaths,Brazil,Rate,0.008773,2022,0.008322,0.008627
0,Deaths,Uruguay,Number,0.74244,2022,0.706583,0.726965
0,Deaths,Uruguay,Percent,0.000018,2022,0.000017,0.000018
0,Deaths,Uruguay,Rate,0.021748,2022,0.020697,0.021295
0,Deaths,Romania,Percent,0.000013,2023,0.000012,0.000013
0,Deaths,Romania,Rate,0.017601,2023,0.016691,0.017572
0,Deaths,Mexico,Percent,0.000005,2021,0.000005,0.000005
0,Deaths,Mexico,Rate,0.005359,2021,0.005016,0.005457
0,Deaths,Kazakhstan,Percent,0.000008,2023,0.000007,0.000008
0,Deaths,Kazakhstan,Rate,0.00559,2023,0.005409,0.005521
0,Deaths,Montenegro,Number,0.111918,2022,0.112294,0.103558
0,Deaths,Montenegro,Percent,0.000014,2022,0.000013,0.000013
0,Deaths,Montenegro,Rate,0.017123,2022,0.017181,0.015844
0,Deaths,'Cabo Verde',Number,0.035525,2022,0.036855,0.032449
0,Deaths,'Cabo Verde',Percent,0.000011,2022,0.000011,0.00001
0,Deaths,'Cabo Verde',Rate,0.00714,2022,0.007408,0.006522
0,Deaths,'Syrian Arab Republic',Number,0.622613,2023,0.662784,0.553273
0,Deaths,'Syrian Arab Republic',Percent,0.000006,2023,0.000006,0.000005
0,Deaths,'Syrian Arab Republic',Rate,0.0035,2023,0.003726,0.003111
0,Deaths,Mozambique,Number,0.662962,2022,0.725168,0.566283
0,Deaths,Mozambique,Percent,0.000002,2022,0.000002,0.000002
0,Deaths,Mozambique,Rate,0.002044,2022,0.002236,0.001746
0,Deaths,'Bosnia and Herzegovina',Number,0.608006,2022,0.592617,0.590178
0,Deaths,'Bosnia and Herzegovina',Percent,0.000014,2022,0.000013,0.000014
0,Deaths,'Bosnia and Herzegovina',Rate,0.018775,2022,0.018299,0.018224
0,Deaths,Finland,Number,0.997412,2021,0.966449,0.936136
0,Deaths,Finland,Percent,0.000016,2021,0.000016,0.000015
0,Deaths,Finland,Rate,0.01798,2021,0.017422,0.016876
0,Deaths,Zambia,Number,0.666958,2020,0.693072,0.618258
0,Deaths,Zambia,Percent,0.000003,2020,0.000003,0.000003
0,Deaths,Zambia,Rate,0.003495,2020,0.003632,0.00324
0,Deaths,Bahamas,Number,0.044916,2020,0.042952,0.044636
0,Deaths,Bahamas,Percent,0.000012,2020,0.000012,0.000013
0,Deaths,Bahamas,Rate,0.011115,2020,0.010629,0.011045
0,Deaths,'United Kingdom',Percent,0.000018,2021,0.000017,0.000017
0,Deaths,'United Kingdom',Rate,0.018035,2021,0.017245,0.017373
0,Deaths,'Saint Lucia',Number,0.017689,2021,0.017357,0.017119
0,Deaths,'Saint Lucia',Percent,0.00001,2021,0.00001,0.00001
0,Deaths,'Saint Lucia',Rate,0.009932,2021,0.009745,0.009612
0,Deaths,Kiribati,Number,0.004366,2023,0.004715,0.003714
0,Deaths,Kiribati,Percent,0.000005,2023,0.000006,0.000004
0,Deaths,Kiribati,Rate,0.003415,2023,0.003688,0.002905
0,Deaths,Comoros,Number,0.022529,2023,0.023379,0.020239
0,Deaths,Comoros,Percent,0.000004,2023,0.000004,0.000004
0,Deaths,Comoros,Rate,0.002553,2023,0.002649,0.002293
0,Deaths,Malaysia,Percent,0.000008,2021,0.000007,0.000008
0,Deaths,Malaysia,Rate,0.005968,2021,0.0058,0.005831
0,Deaths,Palau,Number,0.002683,2022,0.002733,0.002514
0,Deaths,Palau,Percent,0.000012,2022,0.000012,0.000012
0,Deaths,Palau,Rate,0.014981,2022,0.015259,0.014034
0,Deaths,Tunisia,Percent,0.000014,2023,0.000014,0.000013
0,Deaths,Tunisia,Rate,0.00965,2023,0.009785,0.009037
0,Deaths,Nicaragua,Number,0.323605,2021,0.324217,0.317481
0,Deaths,Nicaragua,Percent,0.000006,2021,0.000006,0.000006
0,Deaths,Nicaragua,Rate,0.004857,2021,0.004866,0.004765
0,Deaths,Poland,Percent,0.000016,2022,0.000015,0.000016
0,Deaths,Poland,Rate,0.020053,2022,0.019013,0.019982
0,Deaths,'United Arab Emirates',Number,0.19348,2023,0.20525,0.1772
0,Deaths,'United Arab Emirates',Percent,0.000013,2023,0.000013,0.000012
0,Deaths,'United Arab Emirates',Rate,0.001909,2023,0.002025,0.001748
0,Deaths,Armenia,Number,0.338411,2022,0.328393,0.331173
0,Deaths,Armenia,Percent,0.000011,2022,0.000011,0.000012
0,Deaths,Armenia,Rate,0.01117,2022,0.010839,0.010931
0,Deaths,Tonga,Number,0.008787,2021,0.009394,0.007906
0,Deaths,Tonga,Percent,0.000009,2021,0.00001,0.000009
0,Deaths,Tonga,Rate,0.00844,2021,0.009023,0.007593
0,Deaths,'Viet Nam',Percent,0.00001,2020,0.00001,0.000009
0,Deaths,'Viet Nam',Rate,0.006883,2020,0.007056,0.006438
0,Deaths,Sudan,Percent,0.000005,2020,0.000005,0.000004
0,Deaths,Sudan,Rate,0.003846,2020,0.004269,0.003207
0,Deaths,Czechia,Percent,0.000013,2021,0.000012,0.000013
0,Deaths,Czechia,Rate,0.01867,2021,0.017584,0.018683
0,Deaths,Mali,Number,0.784943,2021,0.807617,0.738808
0,Deaths,Mali,Percent,0.000003,2021,0.000003,0.000003
0,Deaths,Mali,Rate,0.003439,2021,0.003539,0.003237
0,Deaths,Paraguay,Number,0.448665,2022,0.444949,0.416038
0,Deaths,Paraguay,Percent,0.000009,2022,0.000009,0.000008
0,Deaths,Paraguay,Rate,0.007125,2022,0.007065,0.006607
0,Deaths,'Russian Federation',Percent,0.000009,2022,0.000008,0.000009
0,Deaths,'Russian Federation',Rate,0.01285,2022,0.012168,0.012876
0,Deaths,Lebanon,Number,0.454642,2022,0.460565,0.428655
0,Deaths,Lebanon,Percent,0.000013,2022,0.000013,0.000013
0,Deaths,Lebanon,Rate,0.007982,2022,0.008086,0.007526
0,Deaths,'Saint Vincent and the Grenadines',Number,0.01217,2021,0.011984,0.011893
0,Deaths,'Saint Vincent and the Grenadines',Percent,0.000011,2021,0.00001,0.000011
0,Deaths,'Saint Vincent and the Grenadines',Rate,0.010482,2021,0.010322,0.010244
0,Deaths,Luxembourg,Number,0.084507,2023,0.08264,0.082088
0,Deaths,Luxembourg,Percent,0.000019,2023,0.000018,0.000019
0,Deaths,Luxembourg,Rate,0.012825,2023,0.012542,0.012459
0,Deaths,Djibouti,Number,0.066432,2023,0.070201,0.059554
0,Deaths,Djibouti,Percent,0.000007,2023,0.000007,0.000006
0,Deaths,Djibouti,Rate,0.00478,2023,0.005051,0.004285
0,Deaths,Maldives,Number,0.014983,2021,0.014882,0.014157
0,Deaths,Maldives,Percent,0.000006,2021,0.000006,0.000006
0,Deaths,Maldives,Rate,0.0029,2021,0.002881,0.002741
0,Deaths,Serbia,Percent,0.000014,2023,0.000014,0.000014
0,Deaths,Serbia,Rate,0.020271,2023,0.020331,0.019334
0,Deaths,Romania,Percent,0.000012,2022,0.000011,0.000012
0,Deaths,Romania,Rate,0.018249,2022,0.01727,0.018243
0,Deaths,Senegal,Number,0.41796,2021,0.431977,0.38866
0,Deaths,Senegal,Percent,0.000003,2021,0.000003,0.000003
0,Deaths,Senegal,Rate,0.002377,2021,0.002456,0.00221
0,Deaths,Guinea,Number,0.386126,2020,0.414871,0.344876
0,Deaths,Guinea,Percent,0.000002,2020,0.000002,0.000002
0,Deaths,Guinea,Rate,0.002945,2020,0.003164,0.002631
0,Deaths,Ecuador,Percent,0.00001,2023,0.000009,0.00001
0,Deaths,Ecuador,Rate,0.006226,2023,0.005972,0.006158
0,Deaths,Fiji,Number,0.059014,2021,0.059767,0.055986
0,Deaths,Fiji,Percent,0.000005,2021,0.000005,0.000005
0,Deaths,Fiji,Rate,0.006342,2021,0.006422,0.006016
0,Deaths,Barbados,Number,0.055484,2023,0.054431,0.054315
0,Deaths,Barbados,Percent,0.000016,2023,0.000015,0.000016
0,Deaths,Barbados,Rate,0.018433,2023,0.018083,0.018045
0,Deaths,Chad,Number,0.499633,2022,0.548831,0.440393
0,Deaths,Chad,Percent,0.000002,2022,0.000002,0.000001
0,Deaths,Chad,Rate,0.00269,2022,0.002955,0.002371
0,Deaths,Timor-Leste,Number,0.056034,2023,0.061367,0.049467
0,Deaths,Timor-Leste,Percent,0.000005,2023,0.000005,0.000005
0,Deaths,Timor-Leste,Rate,0.003905,2023,0.004276,0.003447
0,Deaths,Bulgaria,Percent,0.000009,2022,0.000009,0.00001
0,Deaths,Bulgaria,Rate,0.018059,2022,0.017144,0.018206
0,Deaths,Philippines,Percent,0.000006,2022,0.000006,0.000006
0,Deaths,Philippines,Rate,0.004586,2022,0.004556,0.004496
0,Deaths,Colombia,Percent,0.000008,2021,0.000007,0.000008
0,Deaths,Colombia,Rate,0.006358,2021,0.005984,0.006399
0,Deaths,'Equatorial Guinea',Number,0.077385,2023,0.084239,0.061274
0,Deaths,'Equatorial Guinea',Percent,0.000006,2023,0.000006,0.000004
0,Deaths,'Equatorial Guinea',Rate,0.004757,2023,0.005178,0.003767
0,Deaths,Yemen,Number,0.847699,2023,0.972221,0.689227
0,Deaths,Yemen,Percent,0.000005,2023,0.000005,0.000004
0,Deaths,Yemen,Rate,0.002383,2023,0.002734,0.001938
0,Deaths,'New Zealand',Number,0.784626,2023,0.758189,0.742981
0,Deaths,'New Zealand',Percent,0.000019,2023,0.000018,0.000018
0,Deaths,'New Zealand',Rate,0.015326,2023,0.01481,0.014513
0,Deaths,Ghana,Percent,0.000004,2023,0.000004,0.000004
0,Deaths,Ghana,Rate,0.003561,2023,0.003776,0.003254
0,Deaths,France,Percent,0.000018,2021,0.000018,0.000018
0,Deaths,France,Rate,0.018033,2021,0.017371,0.017184
0,Deaths,Madagascar,Percent,0.000004,2021,0.000004,0.000004
0,Deaths,Madagascar,Rate,0.004414,2021,0.004579,0.004158
0,Deaths,Azerbaijan,Number,0.679451,2022,0.715365,0.633671
0,Deaths,Azerbaijan,Percent,0.000009,2022,0.000009,0.000008
0,Deaths,Azerbaijan,Rate,0.006493,2022,0.006836,0.006055
0,Deaths,Mali,Number,0.929147,2023,0.962341,0.841467
0,Deaths,Mali,Percent,0.000004,2023,0.000004,0.000003
0,Deaths,Mali,Rate,0.003834,2023,0.003971,0.003472
0,Deaths,Georgia,Number,0.559863,2022,0.541994,0.549147
0,Deaths,Georgia,Percent,0.00001,2022,0.00001,0.00001
0,Deaths,Georgia,Rate,0.015522,2022,0.015026,0.015225
0,Deaths,Vanuatu,Number,0.009404,2021,0.010012,0.008457
0,Deaths,Vanuatu,Percent,0.000004,2021,0.000004,0.000003
0,Deaths,Vanuatu,Rate,0.00297,2021,0.003162,0.002671
0,Deaths,'United States Virgin Islands',Number,0.011786,2021,0.011672,0.011286
0,Deaths,'United States Virgin Islands',Percent,0.000011,2021,0.00001,0.000011
0,Deaths,'United States Virgin Islands',Rate,0.013446,2021,0.013316,0.012876
0,Deaths,'Bolivia (Plurinational State of)',Percent,0.000011,2022,0.000011,0.000011
0,Deaths,'Bolivia (Plurinational State of)',Rate,0.00845,2022,0.008607,0.008034
0,Deaths,Colombia,Percent,0.000012,2023,0.000011,0.000012
0,Deaths,Colombia,Rate,0.00651,2023,0.006194,0.006403
0,Deaths,Argentina,Percent,0.000011,2021,0.00001,0.000011
0,Deaths,Argentina,Rate,0.011055,2021,0.010437,0.011088
0,Deaths,Monaco,Number,0.016237,2021,0.017597,0.014408
0,Deaths,Monaco,Percent,0.000026,2021,0.000028,0.000023
0,Deaths,Monaco,Rate,0.042002,2021,0.045521,0.037272
0,Deaths,Peru,Percent,0.000013,2023,0.000013,0.000013
0,Deaths,Peru,Rate,0.008249,2023,0.008201,0.007854
0,Deaths,'Côte dIvoire',Percent,0.000003,2022,0.000003,0.000003
0,Deaths,'Côte dIvoire',Rate,0.003193,2022,0.003348,0.002852
0,Deaths,'Costa Rica',Number,0.385929,2021,0.366501,0.383508
0,Deaths,'Costa Rica',Percent,0.000011,2021,0.000011,0.000012
0,Deaths,'Costa Rica',Rate,0.007517,2021,0.007138,0.00747
0,Deaths,Canada,Percent,0.000018,2022,0.000017,0.000017
0,Deaths,Canada,Rate,0.016515,2022,0.01578,0.015887
0,Deaths,Algeria,Percent,0.000006,2023,0.000007,0.000005
0,Deaths,Algeria,Rate,0.003663,2023,0.004143,0.002986
0,Deaths,'Sri Lanka',Percent,0.000008,2022,0.000008,0.000008
0,Deaths,'Sri Lanka',Rate,0.007312,2022,0.00726,0.007014
0,Deaths,Kyrgyzstan,Number,0.265342,2023,0.255697,0.261073
0,Deaths,Kyrgyzstan,Percent,0.000007,2023,0.000007,0.000008
0,Deaths,Kyrgyzstan,Rate,0.003659,2023,0.003525,0.0036
0,Deaths,'Puerto Rico',Number,0.438221,2023,0.424631,0.421575
0,Deaths,'Puerto Rico',Percent,0.000012,2023,0.000011,0.000011
0,Deaths,'Puerto Rico',Rate,0.013294,2023,0.012882,0.01279
0,Deaths,Oman,Number,0.098679,2022,0.101313,0.089578
0,Deaths,Oman,Percent,0.000007,2022,0.000007,0.000006
0,Deaths,Oman,Rate,0.001992,2022,0.002045,0.001808
0,Deaths,'Sierra Leone',Number,0.256458,2021,0.267891,0.231834
0,Deaths,'Sierra Leone',Percent,0.000002,2021,0.000002,0.000002
0,Deaths,'Sierra Leone',Rate,0.003264,2021,0.00341,0.002951
0,Deaths,Ecuador,Percent,0.000009,2022,0.000009,0.000009
0,Deaths,Ecuador,Rate,0.005921,2022,0.005599,0.005911
0,Deaths,Malawi,Percent,0.000004,2021,0.000004,0.000004
0,Deaths,Malawi,Rate,0.005609,2021,0.006018,0.005013
0,Deaths,Panama,Number,0.243494,2021,0.232105,0.241483
0,Deaths,Panama,Percent,0.000009,2021,0.000008,0.000009
0,Deaths,Panama,Rate,0.006055,2021,0.005772,0.006005
0,Deaths,Türkiye,Percent,0.000013,2022,0.000013,0.000012
0,Deaths,Türkiye,Rate,0.009351,2022,0.009404,0.008659
0,Deaths,Hungary,Percent,0.000013,2021,0.000012,0.000013
0,Deaths,Hungary,Rate,0.021799,2021,0.020468,0.021975
0,Deaths,Serbia,Percent,0.000013,2022,0.000012,0.000013
0,Deaths,Serbia,Rate,0.019977,2022,0.019305,0.019708
0,Deaths,Eritrea,Number,0.382245,2023,0.395619,0.348751
0,Deaths,Eritrea,Percent,0.000005,2023,0.000006,0.000005
0,Deaths,Eritrea,Rate,0.005441,2023,0.005631,0.004964
0,Deaths,Guinea-Bissau,Number,0.054565,2020,0.057722,0.048429
0,Deaths,Guinea-Bissau,Percent,0.000002,2020,0.000002,0.000002
0,Deaths,Guinea-Bissau,Rate,0.002689,2020,0.002844,0.002387
0,Deaths,'South Sudan',Number,0.549505,2022,0.585024,0.506343
0,Deaths,'South Sudan',Percent,0.000004,2022,0.000004,0.000004
0,Deaths,'South Sudan',Rate,0.005648,2022,0.006013,0.005204
0,Deaths,Mauritania,Number,0.175373,2021,0.188476,0.152432
0,Deaths,Mauritania,Percent,0.000004,2021,0.000005,0.000004
0,Deaths,Mauritania,Rate,0.003974,2021,0.00427,0.003454
0,Deaths,Ukraine,Percent,0.000007,2022,0.000007,0.000007
0,Deaths,Ukraine,Rate,0.011997,2022,0.011811,0.011808
0,Deaths,Bahrain,Number,0.059955,2023,0.061559,0.053823
0,Deaths,Bahrain,Percent,0.000012,2023,0.000012,0.000011
0,Deaths,Bahrain,Rate,0.003827,2023,0.003929,0.003436
0,Deaths,Suriname,Number,0.049976,2021,0.048938,0.048017
0,Deaths,Suriname,Percent,0.000007,2021,0.000006,0.000007
0,Deaths,Suriname,Rate,0.008483,2021,0.008306,0.00815
0,Deaths,Singapore,Number,0.502796,2023,0.489118,0.469898
0,Deaths,Singapore,Percent,0.000018,2023,0.000017,0.000017
0,Deaths,Singapore,Rate,0.008832,2023,0.008592,0.008255
0,Deaths,Nauru,Number,0.000995,2021,0.001107,0.000867
0,Deaths,Nauru,Percent,0.000006,2021,0.000007,0.000006
0,Deaths,Nauru,Rate,0.008316,2021,0.009254,0.007251
0,Deaths,'Saint Kitts and Nevis',Number,0.004968,2023,0.004813,0.004882
0,Deaths,'Saint Kitts and Nevis',Percent,0.000012,2023,0.000011,0.000012
0,Deaths,'Saint Kitts and Nevis',Rate,0.010346,2023,0.010023,0.010166
0,Deaths,Germany,Percent,0.000016,2021,0.000015,0.000015
0,Deaths,Germany,Rate,0.020963,2021,0.020125,0.020071
0,Deaths,Pakistan,Percent,0.000007,2022,0.000007,0.000006
0,Deaths,Pakistan,Rate,0.004555,2022,0.004771,0.004199
0,Deaths,Kiribati,Number,0.004077,2021,0.004478,0.003487
0,Deaths,Kiribati,Percent,0.000004,2021,0.000005,0.000004
0,Deaths,Kiribati,Rate,0.00329,2021,0.003614,0.002815
0,Deaths,Mauritania,Number,0.210688,2023,0.23241,0.175019
0,Deaths,Mauritania,Percent,0.000006,2023,0.000007,0.000005
0,Deaths,Mauritania,Rate,0.004581,2023,0.005053,0.003805
0,Deaths,Japan,Percent,0.00002,2021,0.00002,0.000018
0,Deaths,Japan,Rate,0.024133,2021,0.024032,0.021492
0,Deaths,Japan,Percent,0.000019,2022,0.000019,0.000017
0,Deaths,Japan,Rate,0.025329,2022,0.025192,0.022642
0,Deaths,'Venezuela (Bolivarian Republic of)',Percent,0.00001,2021,0.000009,0.00001
0,Deaths,'Venezuela (Bolivarian Republic of)',Rate,0.009049,2021,0.008782,0.008907
0,Deaths,Qatar,Number,0.031475,2022,0.034543,0.02943
0,Deaths,Qatar,Percent,0.000009,2022,0.00001,0.000009
0,Deaths,Qatar,Rate,0.001035,2022,0.001136,0.000968
0,Deaths,Malta,Number,0.069852,2023,0.069385,0.06611
0,Deaths,Malta,Percent,0.000016,2023,0.000015,0.000015
0,Deaths,Malta,Rate,0.012544,2023,0.01246,0.011872
0,Deaths,Slovakia,Number,0.979162,2023,0.952177,0.965849
0,Deaths,Slovakia,Percent,0.000017,2023,0.000016,0.000017
0,Deaths,Slovakia,Rate,0.018069,2023,0.017571,0.017823
0,Deaths,Ethiopia,Percent,0.000008,2023,0.000008,0.000007
0,Deaths,Ethiopia,Rate,0.006061,2023,0.006203,0.005623
0,Deaths,'Democratic Republic of the Congo',Percent,0.000004,2022,0.000005,0.000004
0,Deaths,'Democratic Republic of the Congo',Rate,0.004719,2022,0.005086,0.003881
0,Deaths,Rwanda,Number,0.775819,2022,0.808509,0.699262
0,Deaths,Rwanda,Percent,0.000007,2022,0.000007,0.000006
0,Deaths,Rwanda,Rate,0.005673,2022,0.005912,0.005113
0,Deaths,Thailand,Percent,0.000014,2022,0.000014,0.000013
0,Deaths,Thailand,Rate,0.013905,2022,0.014501,0.01328
0,Deaths,Kazakhstan,Percent,0.000007,2022,0.000006,0.000007
0,Deaths,Kazakhstan,Rate,0.005411,2022,0.005193,0.005388
0,Deaths,Oman,Number,0.099501,2021,0.101359,0.091215
0,Deaths,Oman,Percent,0.000005,2021,0.000005,0.000004
0,Deaths,Oman,Rate,0.002087,2021,0.002126,0.001913
0,Deaths,Gabon,Number,0.121349,2023,0.127858,0.110221
0,Deaths,Gabon,Percent,0.000007,2023,0.000008,0.000007
0,Deaths,Gabon,Rate,0.00634,2023,0.00668,0.005758
0,Deaths,Mauritius,Number,0.096954,2021,0.092283,0.097581
0,Deaths,Mauritius,Percent,0.000006,2021,0.000006,0.000006
0,Deaths,Mauritius,Rate,0.007582,2021,0.007216,0.007631
0,Deaths,China,Percent,0.000015,2023,0.000014,0.000014
0,Deaths,China,Rate,0.011898,2023,0.012252,0.010807
0,Deaths,'Marshall Islands',Number,0.003332,2023,0.003538,0.002944
0,Deaths,'Marshall Islands',Percent,0.000008,2023,0.000009,0.000007
0,Deaths,'Marshall Islands',Rate,0.007996,2023,0.008491,0.007064
0,Deaths,'Cabo Verde',Number,0.031906,2021,0.03306,0.028887
0,Deaths,'Cabo Verde',Percent,0.000008,2021,0.000008,0.000007
0,Deaths,'Cabo Verde',Rate,0.006371,2021,0.006602,0.005768
0,Deaths,Peru,Percent,0.000012,2022,0.000012,0.000012
0,Deaths,Peru,Rate,0.007942,2022,0.007808,0.00763
0,Deaths,Uzbekistan,Percent,0.000005,2023,0.000005,0.000006
0,Deaths,Uzbekistan,Rate,0.003711,2023,0.00355,0.00372
0,Deaths,Chile,Percent,0.000013,2021,0.000012,0.000013
0,Deaths,Chile,Rate,0.010275,2021,0.009718,0.01012
0,Deaths,'United States of America',Percent,0.000013,2022,0.000012,0.000013
0,Deaths,'United States of America',Rate,0.013817,2022,0.013276,0.013336
0,Deaths,'American Samoa',Number,0.00453,2021,0.004812,0.004027
0,Deaths,'American Samoa',Percent,0.000009,2021,0.000009,0.000008
0,Deaths,'American Samoa',Rate,0.009027,2021,0.009589,0.008026
0,Deaths,'El Salvador',Number,0.504226,2021,0.515443,0.48183
0,Deaths,'El Salvador',Percent,0.000008,2021,0.000008,0.000008
0,Deaths,'El Salvador',Rate,0.008148,2021,0.008329,0.007786
0,Deaths,'Costa Rica',Number,0.460623,2023,0.441587,0.45137
0,Deaths,'Costa Rica',Percent,0.000015,2023,0.000014,0.000015
0,Deaths,'Costa Rica',Rate,0.008845,2023,0.008479,0.008667
0,Deaths,'North Macedonia',Number,0.314786,2021,0.302929,0.305686
0,Deaths,'North Macedonia',Percent,0.00001,2021,0.000009,0.00001
0,Deaths,'North Macedonia',Rate,0.016628,2021,0.016001,0.016147
0,Deaths,'Republic of Korea',Percent,0.000018,2022,0.000018,0.000017
0,Deaths,'Republic of Korea',Rate,0.014054,2022,0.014022,0.013174
0,Deaths,Libya,Number,0.381833,2022,0.410219,0.331093
0,Deaths,Libya,Percent,0.000009,2022,0.00001,0.000008
0,Deaths,Libya,Rate,0.005207,2022,0.005594,0.004515
0,Deaths,'United Arab Emirates',Number,0.160946,2022,0.171437,0.150226
0,Deaths,'United Arab Emirates',Percent,0.000012,2022,0.000012,0.000011
0,Deaths,'United Arab Emirates',Rate,0.001598,2022,0.001702,0.001491
0,Deaths,Netherlands,Percent,0.000021,2023,0.00002,0.00002
0,Deaths,Netherlands,Rate,0.020929,2023,0.020181,0.019813
0,Deaths,Liberia,Number,0.195519,2020,0.212159,0.164599
0,Deaths,Liberia,Percent,0.000003,2020,0.000003,0.000002
0,Deaths,Liberia,Rate,0.003665,2020,0.003977,0.003086
0,Deaths,Slovakia,Number,0.993627,2022,0.959358,0.982691
0,Deaths,Slovakia,Percent,0.000015,2022,0.000015,0.000016
0,Deaths,Slovakia,Rate,0.018305,2022,0.017674,0.018104
0,Deaths,'Saudi Arabia',Number,0.852099,2022,0.932433,0.800125
0,Deaths,'Saudi Arabia',Percent,0.000008,2022,0.000008,0.000007
0,Deaths,'Saudi Arabia',Rate,0.002588,2022,0.002832,0.00243
0,Deaths,Belarus,Percent,0.00001,2023,0.00001,0.00001
0,Deaths,Belarus,Rate,0.014654,2023,0.014258,0.014482
0,Deaths,Gambia,Number,0.04869,2022,0.053632,0.042031
0,Deaths,Gambia,Percent,0.000002,2022,0.000002,0.000002
0,Deaths,Gambia,Rate,0.001974,2022,0.002175,0.001704
0,Deaths,'San Marino',Number,0.005712,2023,0.006006,0.005113
0,Deaths,'San Marino',Percent,0.000019,2023,0.00002,0.000017
0,Deaths,'San Marino',Rate,0.016249,2023,0.017084,0.014544
0,Deaths,Andorra,Number,0.014699,2023,0.014889,0.013352
0,Deaths,Andorra,Percent,0.000021,2023,0.000021,0.00002
0,Deaths,Andorra,Rate,0.016264,2023,0.016474,0.014773
0,Deaths,Mongolia,Number,0.326661,2023,0.328403,0.30712
0,Deaths,Mongolia,Percent,0.000017,2023,0.000016,0.000016
0,Deaths,Mongolia,Rate,0.009434,2023,0.009484,0.00887
0,Deaths,Slovenia,Number,0.42295,2023,0.408446,0.408468
0,Deaths,Slovenia,Percent,0.000019,2023,0.000018,0.000018
0,Deaths,Slovenia,Rate,0.019984,2023,0.019298,0.019299
0,Deaths,Kenya,Percent,0.000007,2023,0.000007,0.000006
0,Deaths,Kenya,Rate,0.004277,2023,0.004443,0.003914
0,Deaths,Yemen,Number,0.802314,2022,0.900668,0.67144
0,Deaths,Yemen,Percent,0.000004,2022,0.000005,0.000004
0,Deaths,Yemen,Rate,0.002307,2022,0.00259,0.001931
0,Deaths,Slovenia,Number,0.428985,2022,0.411531,0.416263
0,Deaths,Slovenia,Percent,0.000018,2022,0.000017,0.000017
0,Deaths,Slovenia,Rate,0.020333,2022,0.019506,0.01973
0,Deaths,Armenia,Number,0.348934,2021,0.331008,0.350296
0,Deaths,Armenia,Percent,0.000009,2021,0.000008,0.000009
0,Deaths,Armenia,Rate,0.011488,2021,0.010898,0.011533
0,Deaths,Niger,Number,0.564031,2023,0.658516,0.488546
0,Deaths,Niger,Percent,0.000001,2023,0.000001,0.000001
0,Deaths,Niger,Rate,0.002116,2023,0.002471,0.001833
0,Deaths,'New Zealand',Number,0.740883,2022,0.713995,0.710888
0,Deaths,'New Zealand',Percent,0.000018,2022,0.000017,0.000017
0,Deaths,'New Zealand',Rate,0.014457,2022,0.013932,0.013872
0,Deaths,'Equatorial Guinea',Number,0.069478,2022,0.077276,0.058599
0,Deaths,'Equatorial Guinea',Percent,0.000005,2022,0.000005,0.000004
0,Deaths,'Equatorial Guinea',Rate,0.004387,2022,0.004879,0.0037
0,Deaths,Australia,Percent,0.000019,2023,0.000019,0.000018
0,Deaths,Australia,Rate,0.013862,2023,0.013444,0.012868
0,Deaths,Belize,Number,0.020056,2023,0.019712,0.019381
0,Deaths,Belize,Percent,0.000009,2023,0.000008,0.000009
0,Deaths,Belize,Rate,0.004848,2023,0.004765,0.004685
0,Deaths,Kyrgyzstan,Number,0.239732,2022,0.233215,0.238403
0,Deaths,Kyrgyzstan,Percent,0.000006,2022,0.000006,0.000007
0,Deaths,Kyrgyzstan,Rate,0.00336,2022,0.003268,0.003341
0,Deaths,Eswatini,Number,0.063627,2023,0.075369,0.052393
0,Deaths,Eswatini,Percent,0.000004,2023,0.000005,0.000004
0,Deaths,Eswatini,Rate,0.005363,2023,0.006353,0.004416
0,Deaths,'Marshall Islands',Number,0.003279,2021,0.00356,0.002829
0,Deaths,'Marshall Islands',Percent,0.000007,2021,0.000007,0.000006
0,Deaths,'Marshall Islands',Rate,0.007507,2021,0.008149,0.006477
0,Deaths,Qatar,Number,0.029594,2021,0.031418,0.028044
0,Deaths,Qatar,Percent,0.000008,2021,0.000009,0.000008
0,Deaths,Qatar,Rate,0.000995,2021,0.001057,0.000943
0,Deaths,'Democratic Peoples Republic of Korea',Percent,0.000011,2023,0.000011,0.00001
0,Deaths,'Democratic Peoples Republic of Korea',Rate,0.010409,2023,0.011333,0.008993
0,Deaths,Morocco,Percent,0.000006,2022,0.000007,0.000005
0,Deaths,Morocco,Rate,0.005241,2022,0.005882,0.004523
0,Deaths,'Puerto Rico',Number,0.408866,2022,0.39389,0.398026
0,Deaths,'Puerto Rico',Percent,0.000011,2022,0.00001,0.00001
0,Deaths,'Puerto Rico',Rate,0.012286,2022,0.011836,0.011961
0,Deaths,Uzbekistan,Percent,0.000005,2021,0.000004,0.000005
0,Deaths,Uzbekistan,Rate,0.00367,2021,0.00347,0.003721
0,Deaths,Comoros,Number,0.021491,2022,0.02214,0.019064
0,Deaths,Comoros,Percent,0.000004,2022,0.000004,0.000003
0,Deaths,Comoros,Rate,0.002484,2022,0.002559,0.002204
0,Deaths,Bermuda,Number,0.0124,2021,0.012046,0.011979
0,Deaths,Bermuda,Percent,0.000017,2021,0.000016,0.000016
0,Deaths,Bermuda,Rate,0.019389,2021,0.018837,0.018732
0,Deaths,'Syrian Arab Republic',Number,0.603775,2022,0.632171,0.542426
0,Deaths,'Syrian Arab Republic',Percent,0.000006,2022,0.000006,0.000005
0,Deaths,'Syrian Arab Republic',Rate,0.003432,2022,0.003593,0.003083
0,Deaths,Timor-Leste,Number,0.053651,2022,0.057426,0.047245
0,Deaths,Timor-Leste,Percent,0.000005,2022,0.000005,0.000005
0,Deaths,Timor-Leste,Rate,0.003812,2022,0.00408,0.003357
0,Deaths,Norway,Number,0.847406,2023,0.82408,0.802229
0,Deaths,Norway,Percent,0.000018,2023,0.000018,0.000017
0,Deaths,Norway,Rate,0.015488,2023,0.015062,0.014662
0,Deaths,Nigeria,Percent,0.000003,2023,0.000003,0.000003
0,Deaths,Nigeria,Rate,0.003118,2023,0.003394,0.00268
0,Deaths,Kuwait,Number,0.08948,2021,0.0855,0.08922
0,Deaths,Kuwait,Percent,0.000007,2021,0.000007,0.000008
0,Deaths,Kuwait,Rate,0.002007,2021,0.001917,0.002001
0,Deaths,Austria,Percent,0.000017,2023,0.000016,0.000016
0,Deaths,Austria,Rate,0.017444,2023,0.016803,0.01656
0,Deaths,Estonia,Number,0.2442,2023,0.23433,0.238148
0,Deaths,Estonia,Percent,0.000014,2023,0.000013,0.000014
0,Deaths,Estonia,Rate,0.018044,2023,0.017315,0.017597
0,Deaths,Singapore,Number,0.461128,2022,0.441913,0.447624
0,Deaths,Singapore,Percent,0.000016,2022,0.000015,0.000016
0,Deaths,Singapore,Rate,0.008117,2022,0.007779,0.00788
0,Deaths,Mali,Number,0.728444,2020,0.768858,0.66818
0,Deaths,Mali,Percent,0.000003,2020,0.000003,0.000002
0,Deaths,Mali,Rate,0.003292,2020,0.003475,0.00302
0,Deaths,'El Salvador',Number,0.516004,2023,0.526327,0.491755
0,Deaths,'El Salvador',Percent,0.00001,2023,0.00001,0.00001
0,Deaths,'El Salvador',Rate,0.008339,2023,0.008506,0.007947
0,Deaths,'United States Virgin Islands',Number,0.013901,2023,0.014028,0.012943
0,Deaths,'United States Virgin Islands',Percent,0.000013,2023,0.000012,0.000012
0,Deaths,'United States Virgin Islands',Rate,0.016539,2023,0.01669,0.015399
0,Deaths,Ghana,Percent,0.000004,2022,0.000004,0.000003
0,Deaths,Ghana,Rate,0.003401,2022,0.003525,0.003141
0,Deaths,Chad,Number,0.434831,2021,0.474454,0.387666
0,Deaths,Chad,Percent,0.000001,2021,0.000001,0.000001
0,Deaths,Chad,Rate,0.002432,2021,0.002653,0.002168
0,Deaths,Uruguay,Number,0.672446,2021,0.636277,0.663349
0,Deaths,Uruguay,Percent,0.000015,2021,0.000014,0.000015
0,Deaths,Uruguay,Rate,0.019641,2021,0.018584,0.019376
0,Deaths,Botswana,Number,0.101797,2023,0.10774,0.088849
0,Deaths,Botswana,Percent,0.000005,2023,0.000005,0.000004
0,Deaths,Botswana,Rate,0.004163,2023,0.004406,0.003633
0,Deaths,Albania,Number,0.288294,2023,0.294883,0.272892
0,Deaths,Albania,Percent,0.000013,2023,0.000013,0.000012
0,Deaths,Albania,Rate,0.011887,2023,0.012159,0.011252
0,Deaths,Sweden,Percent,0.000018,2023,0.000017,0.000017
0,Deaths,Sweden,Rate,0.016863,2023,0.016417,0.015686
0,Deaths,'Saudi Arabia',Number,0.841605,2021,0.932596,0.791448
0,Deaths,'Saudi Arabia',Percent,0.000007,2021,0.000008,0.000007
0,Deaths,'Saudi Arabia',Rate,0.002563,2021,0.00284,0.00241
0,Deaths,Guatemala,Number,0.727515,2021,0.688269,0.734379
0,Deaths,Guatemala,Percent,0.000005,2021,0.000005,0.000005
0,Deaths,Guatemala,Rate,0.004517,2021,0.004273,0.00456
0,Deaths,Zimbabwe,Number,0.577338,2023,0.628148,0.5226
0,Deaths,Zimbabwe,Percent,0.000004,2023,0.000004,0.000004
0,Deaths,Zimbabwe,Rate,0.003622,2023,0.003941,0.003279
0,Deaths,Egypt,Percent,0.000007,2023,0.000007,0.000006
0,Deaths,Egypt,Rate,0.004735,2023,0.005056,0.004227
0,Deaths,Tokelau,Number,0.000105,2023,0.000113,0.000092
0,Deaths,Tokelau,Percent,0.000007,2023,0.000008,0.000006
0,Deaths,Tokelau,Rate,0.00653,2023,0.007092,0.005763
0,Deaths,'Taiwan (Province of China)',Percent,0.000019,2023,0.000018,0.000019
0,Deaths,'Taiwan (Province of China)',Rate,0.017807,2023,0.017149,0.017221
0,Deaths,Burundi,Number,0.54018,2023,0.585673,0.481732
0,Deaths,Burundi,Percent,0.000004,2023,0.000004,0.000003
0,Deaths,Burundi,Rate,0.003783,2023,0.004102,0.003374
0,Deaths,Botswana,Number,0.096477,2022,0.10215,0.084506
0,Deaths,Botswana,Percent,0.000004,2022,0.000005,0.000004
0,Deaths,Botswana,Rate,0.003992,2022,0.004227,0.003497
0,Deaths,Latvia,Number,0.374949,2023,0.358764,0.37045
0,Deaths,Latvia,Percent,0.000012,2023,0.000012,0.000012
0,Deaths,Latvia,Rate,0.019795,2023,0.01894,0.019557
0,Deaths,Belgium,Percent,0.000018,2023,0.000017,0.000017
0,Deaths,Belgium,Rate,0.018275,2023,0.017713,0.017202
0,Deaths,Brazil,Percent,0.000009,2021,0.000008,0.000009
0,Deaths,Brazil,Rate,0.008379,2021,0.007901,0.008316
0,Deaths,Gabon,Number,0.112539,2022,0.118854,0.103317
0,Deaths,Gabon,Percent,0.000007,2022,0.000007,0.000006
0,Deaths,Gabon,Rate,0.005975,2022,0.00631,0.005485
0,Deaths,Cuba,Percent,0.000015,2023,0.000014,0.000015
0,Deaths,Cuba,Rate,0.016343,2023,0.016332,0.015531
0,Deaths,'Sao Tome and Principe',Number,0.009979,2023,0.010645,0.008945
0,Deaths,'Sao Tome and Principe',Percent,0.000007,2023,0.000007,0.000006
0,Deaths,'Sao Tome and Principe',Rate,0.004494,2023,0.004795,0.004029
0,Deaths,Tajikistan,Number,0.371681,2023,0.409094,0.332841
0,Deaths,Tajikistan,Percent,0.000006,2023,0.000007,0.000006
0,Deaths,Tajikistan,Rate,0.003477,2023,0.003827,0.003114
0,Deaths,Mozambique,Number,0.648823,2021,0.688589,0.58979
0,Deaths,Mozambique,Percent,0.000001,2021,0.000001,0.000001
0,Deaths,Mozambique,Rate,0.002055,2021,0.002181,0.001868
0,Deaths,Tunisia,Percent,0.000011,2022,0.000011,0.000011
0,Deaths,Tunisia,Rate,0.008434,2022,0.00849,0.008028
0,Deaths,Lesotho,Number,0.105823,2023,0.121286,0.088886
0,Deaths,Lesotho,Percent,0.000004,2023,0.000004,0.000003
0,Deaths,Lesotho,Rate,0.005513,2023,0.006319,0.004631
0,Deaths,Portugal,Percent,0.000017,2023,0.000016,0.000016
0,Deaths,Portugal,Rate,0.020317,2023,0.019647,0.019095
0,Deaths,'Republic of Moldova',Number,0.373987,2021,0.352949,0.380577
0,Deaths,'Republic of Moldova',Percent,0.000006,2021,0.000006,0.000007
0,Deaths,'Republic of Moldova',Rate,0.010224,2021,0.009649,0.010405
0,Deaths,Mongolia,Number,0.328945,2022,0.32608,0.314176
0,Deaths,Mongolia,Percent,0.000016,2022,0.000016,0.000016
0,Deaths,Mongolia,Rate,0.00965,2022,0.009566,0.009217
0,Deaths,Switzerland,Percent,0.000017,2023,0.000017,0.000016
0,Deaths,Switzerland,Rate,0.014743,2023,0.014371,0.013678
0,Deaths,Lesotho,Number,0.101385,2022,0.115709,0.087744
0,Deaths,Lesotho,Percent,0.000003,2022,0.000004,0.000003
0,Deaths,Lesotho,Rate,0.005302,2022,0.006052,0.004589
0,Deaths,'Syrian Arab Republic',Number,0.552386,2021,0.560409,0.512712
0,Deaths,'Syrian Arab Republic',Percent,0.000004,2021,0.000004,0.000004
0,Deaths,'Syrian Arab Republic',Rate,0.003141,2021,0.003187,0.002916
0,Deaths,'Iran (Islamic Republic of)',Percent,0.000011,2023,0.000012,0.000011
0,Deaths,'Iran (Islamic Republic of)',Rate,0.005199,2023,0.005298,0.00478
0,Deaths,Angola,Percent,0.000004,2022,0.000004,0.000003
0,Deaths,Angola,Rate,0.003288,2022,0.003493,0.002922
0,Deaths,Senegal,Number,0.55151,2023,0.585218,0.489159
0,Deaths,Senegal,Percent,0.000004,2023,0.000004,0.000004
0,Deaths,Senegal,Rate,0.002943,2023,0.003123,0.00261
0,Deaths,Kuwait,Number,0.101299,2023,0.09821,0.098808
0,Deaths,Kuwait,Percent,0.00001,2023,0.000009,0.00001
0,Deaths,Kuwait,Rate,0.002164,2023,0.002097,0.002111
0,Deaths,'Côte dIvoire',Number,0.892705,2021,0.924629,0.80973
0,Deaths,'Côte dIvoire',Percent,0.000003,2021,0.000003,0.000003
0,Deaths,'Côte dIvoire',Rate,0.002852,2021,0.002954,0.002587
0,Deaths,Madagascar,Percent,0.000006,2023,0.000006,0.000005
0,Deaths,Madagascar,Rate,0.005089,2023,0.005313,0.004607
0,Deaths,Tuvalu,Number,0.001026,2023,0.001104,0.000908
0,Deaths,Tuvalu,Percent,0.000007,2023,0.000008,0.000006
0,Deaths,Tuvalu,Rate,0.009313,2023,0.010023,0.008247
0,Deaths,Australia,Percent,0.000018,2022,0.000017,0.000017
0,Deaths,Australia,Rate,0.01396,2022,0.013463,0.013076
0,Deaths,Paraguay,Number,0.475615,2021,0.461292,0.435775
0,Deaths,Paraguay,Percent,0.000006,2021,0.000006,0.000006
0,Deaths,Paraguay,Rate,0.00757,2021,0.007342,0.006936
0,Deaths,Dominica,Number,0.010233,2023,0.010302,0.009582
0,Deaths,Dominica,Percent,0.000015,2023,0.000015,0.000014
0,Deaths,Dominica,Rate,0.014795,2023,0.014896,0.013854
0,Deaths,'American Samoa',Number,0.004416,2023,0.004635,0.003945
0,Deaths,'American Samoa',Percent,0.00001,2023,0.00001,0.00001
0,Deaths,'American Samoa',Rate,0.009016,2023,0.009464,0.008055
0,Deaths,Lithuania,Number,0.533413,2023,0.510293,0.52679
0,Deaths,Lithuania,Percent,0.000013,2023,0.000012,0.000013
0,Deaths,Lithuania,Rate,0.018787,2023,0.017973,0.018554
0,Deaths,Guatemala,Number,0.734022,2023,0.727389,0.708786
0,Deaths,Guatemala,Percent,0.000007,2023,0.000007,0.000007
0,Deaths,Guatemala,Rate,0.004455,2023,0.004415,0.004302
0,Deaths,Lebanon,Number,0.40087,2021,0.394918,0.38927
0,Deaths,Lebanon,Percent,0.000011,2021,0.000011,0.000011
0,Deaths,Lebanon,Rate,0.00704,2021,0.006935,0.006837
0,Deaths,'United Kingdom',Percent,0.00002,2023,0.000018,0.000019
0,Deaths,'United Kingdom',Rate,0.019858,2023,0.019025,0.019026
0,Deaths,'Saint Kitts and Nevis',Number,0.004802,2022,0.00469,0.004752
0,Deaths,'Saint Kitts and Nevis',Percent,0.000011,2022,0.000011,0.000011
0,Deaths,'Saint Kitts and Nevis',Rate,0.009985,2022,0.009751,0.009881
0,Deaths,Spain,Percent,0.000018,2023,0.000017,0.000017
0,Deaths,Spain,Rate,0.017494,2023,0.016952,0.016482
0,Deaths,Algeria,Percent,0.000006,2022,0.000006,0.000005
0,Deaths,Algeria,Rate,0.003569,2022,0.004015,0.002886
0,Deaths,Namibia,Number,0.119955,2023,0.124586,0.104278
0,Deaths,Namibia,Percent,0.000005,2023,0.000005,0.000004
0,Deaths,Namibia,Rate,0.003983,2023,0.004136,0.003462
0,Deaths,Palestine,Number,0.173356,2022,0.16959,0.167115
0,Deaths,Palestine,Percent,0.00001,2022,0.000009,0.000009
0,Deaths,Palestine,Rate,0.003252,2022,0.003181,0.003135
0,Deaths,Rwanda,Number,0.691421,2021,0.715065,0.634116
0,Deaths,Rwanda,Percent,0.000006,2021,0.000006,0.000005
0,Deaths,Rwanda,Rate,0.005153,2021,0.005329,0.004726
0,Deaths,Burundi,Number,0.494118,2022,0.526275,0.440841
0,Deaths,Burundi,Percent,0.000003,2022,0.000003,0.000003
0,Deaths,Burundi,Rate,0.003575,2022,0.003807,0.003189
0,Deaths,'Bosnia and Herzegovina',Number,0.60273,2023,0.60442,0.577081
0,Deaths,'Bosnia and Herzegovina',Percent,0.000015,2023,0.000014,0.000015
0,Deaths,'Bosnia and Herzegovina',Rate,0.018882,2023,0.018934,0.018078
0,Deaths,'Dominican Republic',Number,0.850427,2023,0.857432,0.779366
0,Deaths,'Dominican Republic',Percent,0.00001,2023,0.00001,0.000009
0,Deaths,'Dominican Republic',Rate,0.007583,2023,0.007646,0.00695
0,Deaths,Bahrain,Number,0.053717,2022,0.055403,0.049029
0,Deaths,Bahrain,Percent,0.000011,2022,0.000011,0.00001
0,Deaths,Bahrain,Rate,0.003456,2022,0.003565,0.003155
0,Deaths,'South Africa',Percent,0.000007,2023,0.000007,0.000007
0,Deaths,'South Africa',Rate,0.007189,2023,0.007393,0.006811
0,Deaths,Luxembourg,Number,0.079393,2022,0.076739,0.077532
0,Deaths,Luxembourg,Percent,0.000017,2022,0.000017,0.000017
0,Deaths,Luxembourg,Rate,0.012292,2022,0.011881,0.012004
0,Deaths,Iraq,Percent,0.00001,2023,0.00001,0.000009
0,Deaths,Iraq,Rate,0.005533,2023,0.005756,0.004943
0,Deaths,'Central African Republic',Number,0.197916,2022,0.220031,0.155734
0,Deaths,'Central African Republic',Percent,0.000002,2022,0.000002,0.000001
0,Deaths,'Central African Republic',Rate,0.003084,2022,0.003428,0.002426
0,Deaths,Grenada,Number,0.013079,2023,0.013279,0.012388
0,Deaths,Grenada,Percent,0.000012,2023,0.000011,0.000012
0,Deaths,Grenada,Rate,0.011472,2023,0.011647,0.010866
0,Deaths,'Brunei Darussalam',Number,0.033751,2022,0.033763,0.032108
0,Deaths,'Brunei Darussalam',Percent,0.000015,2022,0.000015,0.000015
0,Deaths,'Brunei Darussalam',Rate,0.007402,2022,0.007404,0.007042
0,Deaths,'Micronesia (Federated States of)',Number,0.006471,2023,0.006628,0.006035
0,Deaths,'Micronesia (Federated States of)',Percent,0.000006,2023,0.000007,0.000006
0,Deaths,'Micronesia (Federated States of)',Rate,0.006255,2023,0.006407,0.005834
0,Deaths,Afghanistan,Number,0.670233,2023,0.746675,0.551858
0,Deaths,Afghanistan,Percent,0.000003,2023,0.000003,0.000002
0,Deaths,Afghanistan,Rate,0.001848,2023,0.002059,0.001522
0,Deaths,Bermuda,Number,0.01289,2023,0.012542,0.012541
0,Deaths,Bermuda,Percent,0.00002,2023,0.000019,0.000019
0,Deaths,Bermuda,Rate,0.020455,2023,0.019902,0.019901
0,Deaths,Turkmenistan,Number,0.259032,2023,0.261304,0.250219
0,Deaths,Turkmenistan,Percent,0.000006,2023,0.000006,0.000006
0,Deaths,Turkmenistan,Rate,0.004617,2023,0.004657,0.00446
0,Deaths,Albania,Number,0.338381,2021,0.339406,0.327835
0,Deaths,Albania,Percent,0.00001,2021,0.00001,0.00001
0,Deaths,Albania,Rate,0.013121,2021,0.013161,0.012712
0,Deaths,Cyprus,Number,0.173342,2023,0.175078,0.161099
0,Deaths,Cyprus,Percent,0.000016,2023,0.000016,0.000015
0,Deaths,Cyprus,Rate,0.01267,2023,0.012797,0.011775
0,Deaths,Egypt,Percent,0.000006,2022,0.000006,0.000006
0,Deaths,Egypt,Rate,0.004581,2022,0.004766,0.004173
0,Deaths,'Papua New Guinea',Number,0.447588,2023,0.487076,0.394905
0,Deaths,'Papua New Guinea',Percent,0.000005,2023,0.000005,0.000005
0,Deaths,'Papua New Guinea',Rate,0.004029,2023,0.004384,0.003555
0,Deaths,Lebanon,Number,0.470663,2023,0.48549,0.438441
0,Deaths,Lebanon,Percent,0.000014,2023,0.000014,0.000014
0,Deaths,Lebanon,Rate,0.00825,2023,0.008509,0.007685
0,Deaths,Greece,Percent,0.000015,2022,0.000014,0.000014
0,Deaths,Greece,Rate,0.021213,2022,0.020334,0.020357
0,Deaths,Bulgaria,Percent,0.000011,2023,0.00001,0.000011
0,Deaths,Bulgaria,Rate,0.017246,2023,0.016474,0.017199
0,Deaths,Honduras,Number,0.355459,2023,0.369396,0.321773
0,Deaths,Honduras,Percent,0.000006,2023,0.000006,0.000006
0,Deaths,Honduras,Rate,0.003316,2023,0.003446,0.003002
0,Deaths,Myanmar,Percent,0.000005,2021,0.000005,0.000005
0,Deaths,Myanmar,Rate,0.006333,2021,0.006633,0.005741
0,Deaths,Malta,Number,0.069573,2022,0.068136,0.06662
0,Deaths,Malta,Percent,0.000015,2022,0.000015,0.000015
0,Deaths,Malta,Rate,0.012774,2022,0.01251,0.012232
0,Deaths,Canada,Percent,0.000019,2021,0.000018,0.000018
0,Deaths,Canada,Rate,0.016123,2021,0.015439,0.01548
0,Deaths,Jordan,Number,0.526357,2023,0.529311,0.498512
0,Deaths,Jordan,Percent,0.000012,2023,0.000012,0.000011
0,Deaths,Jordan,Rate,0.003986,2023,0.004009,0.003776
0,Deaths,Seychelles,Number,0.01043,2022,0.010523,0.009848
0,Deaths,Seychelles,Percent,0.000012,2022,0.000012,0.000012
0,Deaths,Seychelles,Rate,0.009883,2022,0.009971,0.009331
0,Deaths,Pakistan,Percent,0.000007,2023,0.000007,0.000007
0,Deaths,Pakistan,Rate,0.004564,2023,0.004723,0.004221
0,Deaths,'Trinidad and Tobago',Number,0.164883,2021,0.158756,0.163339
0,Deaths,'Trinidad and Tobago',Percent,0.000008,2021,0.000008,0.000008
0,Deaths,'Trinidad and Tobago',Rate,0.011821,2021,0.011382,0.011711
0,Deaths,Bangladesh,Percent,0.000008,2023,0.000009,0.000008
0,Deaths,Bangladesh,Rate,0.005975,2023,0.006306,0.005226
0,Deaths,Denmark,Percent,0.000021,2023,0.00002,0.000021
0,Deaths,Denmark,Rate,0.022296,2023,0.02151,0.021372
0,Deaths,'Republic of Moldova',Number,0.422753,2023,0.409633,0.419994
0,Deaths,'Republic of Moldova',Percent,0.00001,2023,0.000009,0.00001
0,Deaths,'Republic of Moldova',Rate,0.011714,2023,0.01135,0.011638
0,Deaths,Netherlands,Percent,0.00002,2022,0.000019,0.00002
0,Deaths,Netherlands,Rate,0.020752,2022,0.019957,0.019722
0,Deaths,Bhutan,Number,0.037966,2023,0.040579,0.034622
0,Deaths,Bhutan,Percent,0.000007,2023,0.000007,0.000006
0,Deaths,Bhutan,Rate,0.005086,2023,0.005436,0.004638
0,Deaths,Iceland,Number,0.051665,2022,0.050229,0.049258
0,Deaths,Iceland,Percent,0.000019,2022,0.000018,0.000018
0,Deaths,Iceland,Rate,0.013694,2022,0.013313,0.013056
0,Deaths,Somalia,Number,0.472683,2022,0.510973,0.415329
0,Deaths,Somalia,Percent,0.000002,2022,0.000002,0.000002
0,Deaths,Somalia,Rate,0.002236,2022,0.002417,0.001965
0,Deaths,India,Percent,0.000006,2023,0.000006,0.000006
0,Deaths,India,Rate,0.004826,2023,0.004962,0.004481
0,Deaths,Libya,Number,0.394711,2023,0.43192,0.340866
0,Deaths,Libya,Percent,0.000007,2023,0.000007,0.000006
0,Deaths,Libya,Rate,0.005331,2023,0.005833,0.004604
0,Deaths,'South Sudan',Number,0.575922,2023,0.603052,0.52858
0,Deaths,'South Sudan',Percent,0.000004,2023,0.000004,0.000004
0,Deaths,'South Sudan',Rate,0.005845,2023,0.00612,0.005365
0,Deaths,Nepal,Percent,0.000005,2023,0.000005,0.000005
0,Deaths,Nepal,Rate,0.003616,2023,0.003868,0.003286
0,Deaths,Morocco,Percent,0.000006,2023,0.000007,0.000005
0,Deaths,Morocco,Rate,0.005319,2023,0.00604,0.004628
0,Deaths,'Russian Federation',Percent,0.00001,2023,0.000009,0.00001
0,Deaths,'Russian Federation',Rate,0.013517,2023,0.012843,0.013464
0,Deaths,Seychelles,Number,0.011904,2023,0.011857,0.01137
0,Deaths,Seychelles,Percent,0.000014,2023,0.000013,0.000013
0,Deaths,Seychelles,Rate,0.01121,2023,0.011166,0.010708
0,Deaths,Palestine,Number,0.186052,2023,0.183683,0.176975
0,Deaths,Palestine,Percent,0.000004,2023,0.000004,0.000004
0,Deaths,Palestine,Rate,0.003439,2023,0.003395,0.003271
0,Deaths,Angola,Percent,0.000004,2023,0.000004,0.000004
0,Deaths,Angola,Rate,0.003514,2023,0.003709,0.003124
0,Deaths,Ukraine,Percent,0.000009,2023,0.000008,0.000009
0,Deaths,Ukraine,Rate,0.01299,2023,0.012919,0.012552
0,Deaths,Greece,Percent,0.000016,2023,0.000016,0.000016
0,Deaths,Greece,Rate,0.021543,2023,0.020807,0.020627
0,Deaths,Somalia,Number,0.49813,2023,0.544748,0.427991
0,Deaths,Somalia,Percent,0.000002,2023,0.000002,0.000002
0,Deaths,Somalia,Rate,0.002276,2023,0.002489,0.001956
0,Deaths,'Central African Republic',Number,0.211194,2023,0.236729,0.165941
0,Deaths,'Central African Republic',Percent,0.000002,2023,0.000002,0.000001
0,Deaths,'Central African Republic',Rate,0.003216,2023,0.003605,0.002527
0,Deaths,Iceland,Number,0.053191,2023,0.052396,0.050535
0,Deaths,Iceland,Percent,0.00002,2023,0.000019,0.000019
0,Deaths,Iceland,Rate,0.01376,2023,0.013554,0.013073
0,Deaths,Congo,Number,0.257404,2023,0.286767,0.223311
0,Deaths,Congo,Percent,0.000005,2023,0.000005,0.000004
0,Deaths,Congo,Rate,0.004207,2023,0.004687,0.00365
0,Deaths,'United Republic of Tanzania',Percent,0.000005,2023,0.000005,0.000005
0,Deaths,'United Republic of Tanzania',Rate,0.003362,2023,0.00358,0.00306
0,Deaths,Ireland,Number,0.759878,2023,0.738137,0.72043
0,Deaths,Ireland,Percent,0.00002,2023,0.000019,0.000019
0,Deaths,Ireland,Rate,0.014268,2023,0.01386,0.013527
0,Deaths,Uganda,Percent,0.000007,2023,0.000007,0.000006
0,Deaths,Uganda,Rate,0.004966,2023,0.00513,0.004519
0,Deaths,'Brunei Darussalam',Number,0.035467,2023,0.035386,0.033637
0,Deaths,'Brunei Darussalam',Percent,0.000016,2023,0.000016,0.000016
0,Deaths,'Brunei Darussalam',Rate,0.007711,2023,0.007694,0.007313
0,Deaths,Israel,Number,0.966982,2023,0.935924,0.912261
0,Deaths,Israel,Percent,0.000018,2023,0.000017,0.000017
0,Deaths,Israel,Rate,0.009679,2023,0.009368,0.009131
0,Deaths,Zambia,Number,0.821204,2023,0.887433,0.726509
0,Deaths,Zambia,Percent,0.000005,2023,0.000005,0.000004
0,Deaths,Zambia,Rate,0.003919,2023,0.004235,0.003467
0,Deaths,Italy,Percent,0.000017,2023,0.000017,0.000016
0,Deaths,Italy,Rate,0.020757,2023,0.020348,0.01916
0,Deaths,'Antigua and Barbuda',Number,0.008603,2023,0.008516,0.008296
0,Deaths,'Antigua and Barbuda',Percent,0.000013,2023,0.000012,0.000013
0,Deaths,'Antigua and Barbuda',Rate,0.009473,2023,0.009377,0.009134
0,Deaths,'Viet Nam',Percent,0.000011,2023,0.000011,0.00001
0,Deaths,'Viet Nam',Rate,0.007736,2023,0.008027,0.006853
0,Deaths,Guinea,Number,0.491153,2023,0.529235,0.432478
0,Deaths,Guinea,Percent,0.000003,2023,0.000003,0.000003
0,Deaths,Guinea,Rate,0.003464,2023,0.003733,0.00305
0,Deaths,Sudan,Percent,0.000005,2023,0.000006,0.000004
0,Deaths,Sudan,Rate,0.004066,2023,0.004728,0.003325
0,Deaths,Bahamas,Number,0.046174,2023,0.045063,0.045223
0,Deaths,Bahamas,Percent,0.000014,2023,0.000013,0.000014
0,Deaths,Bahamas,Rate,0.011183,2023,0.010914,0.010953
0,Deaths,Guinea-Bissau,Number,0.067763,2023,0.074443,0.059494
0,Deaths,Guinea-Bissau,Percent,0.000003,2023,0.000003,0.000003
0,Deaths,Guinea-Bissau,Rate,0.003122,2023,0.003429,0.002741
0,Deaths,Liberia,Number,0.246985,2023,0.260615,0.212499
0,Deaths,Liberia,Percent,0.000004,2023,0.000004,0.000004
0,Deaths,Liberia,Rate,0.004306,2023,0.004543,0.003705
1,'DALYs (Disability-Adjusted Life Years)',China,Percent,0.00001,2017,0.00001,0.000009
1,'DALYs (Disability-Adjusted Life Years)',China,Rate,0.282349,2017,0.275485,0.277383
1,'DALYs (Disability-Adjusted Life Years)',Serbia,Percent,0.000012,2017,0.000012,0.000011
1,'DALYs (Disability-Adjusted Life Years)',Serbia,Rate,0.485822,2017,0.467756,0.477276
1,'DALYs (Disability-Adjusted Life Years)',Vanuatu,Number,0.280737,2017,0.293804,0.25647
1,'DALYs (Disability-Adjusted Life Years)',Vanuatu,Percent,0.000002,2017,0.000002,0.000002
1,'DALYs (Disability-Adjusted Life Years)',Vanuatu,Rate,0.09662,2017,0.101117,0.088268
1,'DALYs (Disability-Adjusted Life Years)','United Kingdom',Percent,0.000011,2017,0.000012,0.000011
1,'DALYs (Disability-Adjusted Life Years)','United Kingdom',Rate,0.369961,2017,0.351676,0.364395
1,'DALYs (Disability-Adjusted Life Years)',Grenada,Number,0.314003,2017,0.304066,0.307974
1,'DALYs (Disability-Adjusted Life Years)',Grenada,Percent,0.000007,2017,0.000007,0.000007
1,'DALYs (Disability-Adjusted Life Years)',Grenada,Rate,0.276886,2017,0.268124,0.27157
1,'DALYs (Disability-Adjusted Life Years)',Palau,Number,0.066098,2018,0.066888,0.062972
1,'DALYs (Disability-Adjusted Life Years)',Palau,Percent,0.000008,2018,0.000008,0.000007
1,'DALYs (Disability-Adjusted Life Years)',Palau,Rate,0.366612,2018,0.370996,0.349276
1,'DALYs (Disability-Adjusted Life Years)',Hungary,Percent,0.000012,2017,0.000012,0.000012
1,'DALYs (Disability-Adjusted Life Years)',Hungary,Rate,0.536752,2017,0.503843,0.543564
1,'DALYs (Disability-Adjusted Life Years)',Guinea,Percent,0.000001,2018,0.000001,0.000001
1,'DALYs (Disability-Adjusted Life Years)',Guinea,Rate,0.107792,2018,0.115075,0.096471
1,'DALYs (Disability-Adjusted Life Years)',Guyana,Percent,0.000003,2018,0.000003,0.000003
1,'DALYs (Disability-Adjusted Life Years)',Guyana,Rate,0.156551,2018,0.151641,0.153641
1,'DALYs (Disability-Adjusted Life Years)',Tunisia,Percent,0.000006,2017,0.000007,0.000006
1,'DALYs (Disability-Adjusted Life Years)',Tunisia,Rate,0.220621,2017,0.22079,0.213332
1,'DALYs (Disability-Adjusted Life Years)',Namibia,Percent,0.000002,2017,0.000002,0.000002
1,'DALYs (Disability-Adjusted Life Years)',Namibia,Rate,0.14118,2017,0.148071,0.11725
1,'DALYs (Disability-Adjusted Life Years)','New Zealand',Percent,0.00001,2017,0.00001,0.000009
1,'DALYs (Disability-Adjusted Life Years)','New Zealand',Rate,0.307618,2017,0.294261,0.297659
1,'DALYs (Disability-Adjusted Life Years)',Kyrgyzstan,Percent,0.000004,2017,0.000004,0.000004
1,'DALYs (Disability-Adjusted Life Years)',Kyrgyzstan,Rate,0.128646,2017,0.12238,0.12965
1,'DALYs (Disability-Adjusted Life Years)','Trinidad and Tobago',Percent,0.000006,2017,0.000006,0.000006
1,'DALYs (Disability-Adjusted Life Years)','Trinidad and Tobago',Rate,0.252862,2017,0.241968,0.251755
1,'DALYs (Disability-Adjusted Life Years)','Democratic Peoples Republic of Korea',Percent,0.000007,2018,0.000007,0.000006
1,'DALYs (Disability-Adjusted Life Years)','Democratic Peoples Republic of Korea',Rate,0.262384,2018,0.278636,0.236576
1,'DALYs (Disability-Adjusted Life Years)',Maldives,Number,0.362809,2017,0.35798,0.351966
1,'DALYs (Disability-Adjusted Life Years)',Maldives,Percent,0.000003,2017,0.000003,0.000003
1,'DALYs (Disability-Adjusted Life Years)',Maldives,Rate,0.078873,2017,0.077823,0.076516
1,'DALYs (Disability-Adjusted Life Years)',Mauritius,Percent,0.000005,2017,0.000005,0.000005
1,'DALYs (Disability-Adjusted Life Years)',Mauritius,Rate,0.202958,2017,0.193374,0.20408
1,'DALYs (Disability-Adjusted Life Years)',Canada,Percent,0.00001,2017,0.000011,0.00001
1,'DALYs (Disability-Adjusted Life Years)',Canada,Rate,0.335595,2017,0.319219,0.331984
1,'DALYs (Disability-Adjusted Life Years)',Australia,Percent,0.00001,2018,0.00001,0.000009
1,'DALYs (Disability-Adjusted Life Years)',Australia,Rate,0.287375,2018,0.275005,0.280238
1,'DALYs (Disability-Adjusted Life Years)',Timor-Leste,Percent,0.000002,2017,0.000002,0.000002
1,'DALYs (Disability-Adjusted Life Years)',Timor-Leste,Rate,0.115386,2017,0.122234,0.101875
1,'DALYs (Disability-Adjusted Life Years)','South Africa',Percent,0.000003,2018,0.000003,0.000003
1,'DALYs (Disability-Adjusted Life Years)','South Africa',Rate,0.204259,2018,0.211941,0.186776
1,'DALYs (Disability-Adjusted Life Years)',Colombia,Percent,0.000006,2017,0.000006,0.000005
1,'DALYs (Disability-Adjusted Life Years)',Colombia,Rate,0.173128,2017,0.162904,0.174913
1,'DALYs (Disability-Adjusted Life Years)',Cyprus,Percent,0.00001,2017,0.00001,0.000009
1,'DALYs (Disability-Adjusted Life Years)',Cyprus,Rate,0.273375,2017,0.273125,0.258755
1,'DALYs (Disability-Adjusted Life Years)',Morocco,Percent,0.000003,2017,0.000003,0.000003
1,'DALYs (Disability-Adjusted Life Years)',Morocco,Rate,0.12812,2017,0.140802,0.109882
1,'DALYs (Disability-Adjusted Life Years)','Brunei Darussalam',Number,0.820145,2017,0.798994,0.790418
1,'DALYs (Disability-Adjusted Life Years)','Brunei Darussalam',Percent,0.000008,2017,0.000008,0.000007
1,'DALYs (Disability-Adjusted Life Years)','Brunei Darussalam',Rate,0.188879,2017,0.184008,0.182033
1,'DALYs (Disability-Adjusted Life Years)',Barbados,Percent,0.00001,2018,0.00001,0.000009
1,'DALYs (Disability-Adjusted Life Years)',Barbados,Rate,0.36049,2018,0.348648,0.358138
1,'DALYs (Disability-Adjusted Life Years)',Uganda,Percent,0.000003,2018,0.000003,0.000002
1,'DALYs (Disability-Adjusted Life Years)',Uganda,Rate,0.184509,2018,0.192453,0.167485
1,'DALYs (Disability-Adjusted Life Years)','Brunei Darussalam',Number,0.880544,2019,0.859524,0.8443
1,'DALYs (Disability-Adjusted Life Years)','Brunei Darussalam',Percent,0.000008,2019,0.000009,0.000008
1,'DALYs (Disability-Adjusted Life Years)','Brunei Darussalam',Rate,0.198657,2019,0.193914,0.19048
1,'DALYs (Disability-Adjusted Life Years)',Slovakia,Percent,0.000011,2017,0.000012,0.000011
1,'DALYs (Disability-Adjusted Life Years)',Slovakia,Rate,0.423154,2017,0.408431,0.423745
1,'DALYs (Disability-Adjusted Life Years)',Pakistan,Percent,0.000003,2018,0.000003,0.000003
1,'DALYs (Disability-Adjusted Life Years)',Pakistan,Rate,0.14899,2018,0.151597,0.141192
1,'DALYs (Disability-Adjusted Life Years)','Papua New Guinea',Percent,0.000002,2017,0.000002,0.000002
1,'DALYs (Disability-Adjusted Life Years)','Papua New Guinea',Rate,0.120859,2017,0.126668,0.108072
1,'DALYs (Disability-Adjusted Life Years)',Suriname,Percent,0.000005,2018,0.000005,0.000005
1,'DALYs (Disability-Adjusted Life Years)',Suriname,Rate,0.207768,2018,0.204345,0.199151
1,'DALYs (Disability-Adjusted Life Years)','Northern Mariana Islands',Number,0.133794,2017,0.134683,0.125888
1,'DALYs (Disability-Adjusted Life Years)','Northern Mariana Islands',Percent,0.000007,2017,0.000007,0.000007
1,'DALYs (Disability-Adjusted Life Years)','Northern Mariana Islands',Rate,0.272008,2017,0.273816,0.255935
1,'DALYs (Disability-Adjusted Life Years)','Sao Tome and Principe',Number,0.264166,2017,0.285884,0.238601
1,'DALYs (Disability-Adjusted Life Years)','Sao Tome and Principe',Percent,0.000003,2017,0.000003,0.000003
1,'DALYs (Disability-Adjusted Life Years)','Sao Tome and Principe',Rate,0.129421,2017,0.140061,0.116896
1,'DALYs (Disability-Adjusted Life Years)',Timor-Leste,Percent,0.000002,2019,0.000002,0.000002
1,'DALYs (Disability-Adjusted Life Years)',Timor-Leste,Rate,0.117607,2019,0.124483,0.106341
1,'DALYs (Disability-Adjusted Life Years)',Nigeria,Percent,0.000001,2018,0.000001,0.000001
1,'DALYs (Disability-Adjusted Life Years)',Nigeria,Rate,0.102604,2018,0.109707,0.090401
1,'DALYs (Disability-Adjusted Life Years)','New Zealand',Percent,0.00001,2019,0.00001,0.000009
1,'DALYs (Disability-Adjusted Life Years)','New Zealand',Rate,0.299671,2019,0.286871,0.291919
1,'DALYs (Disability-Adjusted Life Years)',Kazakhstan,Percent,0.000005,2018,0.000005,0.000005
1,'DALYs (Disability-Adjusted Life Years)',Kazakhstan,Rate,0.187153,2018,0.178763,0.186094
1,'DALYs (Disability-Adjusted Life Years)','Equatorial Guinea',Percent,0.000001,2017,0.000002,0.000001
1,'DALYs (Disability-Adjusted Life Years)','Equatorial Guinea',Rate,0.122361,2017,0.134164,0.101115
1,'DALYs (Disability-Adjusted Life Years)',Belize,Number,0.511767,2017,0.492757,0.507935
1,'DALYs (Disability-Adjusted Life Years)',Belize,Percent,0.000004,2017,0.000004,0.000004
1,'DALYs (Disability-Adjusted Life Years)',Belize,Rate,0.13381,2017,0.12884,0.132808
1,'DALYs (Disability-Adjusted Life Years)',Tunisia,Percent,0.000007,2019,0.000007,0.000006
1,'DALYs (Disability-Adjusted Life Years)',Tunisia,Rate,0.227996,2019,0.226504,0.221333
1,'DALYs (Disability-Adjusted Life Years)',Israel,Percent,0.00001,2019,0.00001,0.000009
1,'DALYs (Disability-Adjusted Life Years)',Israel,Rate,0.207665,2019,0.199166,0.202527
1,'DALYs (Disability-Adjusted Life Years)',Cameroon,Percent,0.000001,2017,0.000001,0.000001
1,'DALYs (Disability-Adjusted Life Years)',Cameroon,Rate,0.10912,2017,0.11142,0.100423
1,'DALYs (Disability-Adjusted Life Years)','United States Virgin Islands',Number,0.293441,2017,0.288431,0.286156
1,'DALYs (Disability-Adjusted Life Years)','United States Virgin Islands',Percent,0.000008,2017,0.000008,0.000007
1,'DALYs (Disability-Adjusted Life Years)','United States Virgin Islands',Rate,0.306447,2017,0.301215,0.298839
1,'DALYs (Disability-Adjusted Life Years)',Türkiye,Percent,0.000007,2018,0.000008,0.000007
1,'DALYs (Disability-Adjusted Life Years)',Türkiye,Rate,0.217733,2018,0.212129,0.204827
1,'DALYs (Disability-Adjusted Life Years)',Slovakia,Percent,0.000011,2019,0.000012,0.000011
1,'DALYs (Disability-Adjusted Life Years)',Slovakia,Rate,0.419738,2019,0.40505,0.418785
1,'DALYs (Disability-Adjusted Life Years)',Ghana,Percent,0.000001,2017,0.000001,0.000001
1,'DALYs (Disability-Adjusted Life Years)',Ghana,Rate,0.095701,2017,0.098589,0.088362
1,'DALYs (Disability-Adjusted Life Years)',Kyrgyzstan,Percent,0.000004,2019,0.000004,0.000003
1,'DALYs (Disability-Adjusted Life Years)',Kyrgyzstan,Rate,0.115513,2019,0.110023,0.116746
1,'DALYs (Disability-Adjusted Life Years)','Micronesia (Federated States of)',Number,0.200979,2018,0.203095,0.189345
1,'DALYs (Disability-Adjusted Life Years)','Micronesia (Federated States of)',Percent,0.000004,2018,0.000004,0.000004
1,'DALYs (Disability-Adjusted Life Years)','Micronesia (Federated States of)',Rate,0.193319,2018,0.195354,0.182129
1,'DALYs (Disability-Adjusted Life Years)','Republic of Moldova',Percent,0.000007,2017,0.000007,0.000007
1,'DALYs (Disability-Adjusted Life Years)','Republic of Moldova',Rate,0.327036,2017,0.311974,0.326515
1,'DALYs (Disability-Adjusted Life Years)','Taiwan (Province of China)',Percent,0.000012,2017,0.000012,0.000011
1,'DALYs (Disability-Adjusted Life Years)','Taiwan (Province of China)',Rate,0.371522,2017,0.350618,0.374422
1,'DALYs (Disability-Adjusted Life Years)',Malaysia,Percent,0.000006,2018,0.000006,0.000005
1,'DALYs (Disability-Adjusted Life Years)',Malaysia,Rate,0.160508,2018,0.154933,0.15823
1,'DALYs (Disability-Adjusted Life Years)',Colombia,Percent,0.000006,2019,0.000006,0.000005
1,'DALYs (Disability-Adjusted Life Years)',Colombia,Rate,0.172722,2019,0.16279,0.174299
1,'DALYs (Disability-Adjusted Life Years)',Albania,Percent,0.000008,2017,0.000008,0.000007
1,'DALYs (Disability-Adjusted Life Years)',Albania,Rate,0.262265,2017,0.263805,0.250809
1,'DALYs (Disability-Adjusted Life Years)',Canada,Percent,0.00001,2019,0.00001,0.000009
1,'DALYs (Disability-Adjusted Life Years)',Canada,Rate,0.331727,2019,0.31566,0.327245
1,'DALYs (Disability-Adjusted Life Years)',Slovenia,Percent,0.000012,2018,0.000013,0.000011
1,'DALYs (Disability-Adjusted Life Years)',Slovenia,Rate,0.422926,2018,0.403768,0.416163
1,'DALYs (Disability-Adjusted Life Years)',Maldives,Number,0.394046,2019,0.391593,0.379962
1,'DALYs (Disability-Adjusted Life Years)',Maldives,Percent,0.000003,2019,0.000003,0.000003
1,'DALYs (Disability-Adjusted Life Years)',Maldives,Rate,0.0806,2019,0.080098,0.07772
1,'DALYs (Disability-Adjusted Life Years)',Mozambique,Percent,0,2018,0,0
1,'DALYs (Disability-Adjusted Life Years)',Mozambique,Rate,0.074688,2018,0.077813,0.067515
1,'DALYs (Disability-Adjusted Life Years)',Lithuania,Percent,0.00001,2018,0.000009,0.000009
1,'DALYs (Disability-Adjusted Life Years)',Lithuania,Rate,0.453693,2018,0.428048,0.457118
1,'DALYs (Disability-Adjusted Life Years)','United States of America',Percent,0.000008,2018,0.000008,0.000008
1,'DALYs (Disability-Adjusted Life Years)','United States of America',Rate,0.308454,2018,0.294703,0.303234
1,'DALYs (Disability-Adjusted Life Years)',Iraq,Percent,0.000005,2019,0.000005,0.000004
1,'DALYs (Disability-Adjusted Life Years)',Iraq,Rate,0.170109,2019,0.172443,0.161828
1,'DALYs (Disability-Adjusted Life Years)','United Arab Emirates',Percent,0.000002,2017,0.000002,0.000002
1,'DALYs (Disability-Adjusted Life Years)','United Arab Emirates',Rate,0.047082,2017,0.050076,0.044024
1,'DALYs (Disability-Adjusted Life Years)','Bolivia (Plurinational State of)',Percent,0.000006,2017,0.000006,0.000005
1,'DALYs (Disability-Adjusted Life Years)','Bolivia (Plurinational State of)',Rate,0.225311,2017,0.228479,0.214209
1,'DALYs (Disability-Adjusted Life Years)','Iran (Islamic Republic of)',Percent,0.000005,2018,0.000005,0.000005
1,'DALYs (Disability-Adjusted Life Years)','Iran (Islamic Republic of)',Rate,0.148585,2018,0.14852,0.144054
1,'DALYs (Disability-Adjusted Life Years)','Cabo Verde',Number,0.874665,2018,0.908856,0.812239
1,'DALYs (Disability-Adjusted Life Years)','Cabo Verde',Percent,0.000005,2018,0.000006,0.000005
1,'DALYs (Disability-Adjusted Life Years)','Cabo Verde',Rate,0.171638,2018,0.178348,0.159388
1,'DALYs (Disability-Adjusted Life Years)',Afghanistan,Percent,0,2018,0.000001,0
1,'DALYs (Disability-Adjusted Life Years)',Afghanistan,Rate,0.070233,2018,0.077113,0.055581
1,'DALYs (Disability-Adjusted Life Years)',Morocco,Percent,0.000003,2019,0.000004,0.000003
1,'DALYs (Disability-Adjusted Life Years)',Morocco,Rate,0.140747,2019,0.156289,0.122251
1,'DALYs (Disability-Adjusted Life Years)',Montenegro,Percent,0.000011,2017,0.000011,0.00001
1,'DALYs (Disability-Adjusted Life Years)',Montenegro,Rate,0.383929,2017,0.379809,0.367508
1,'DALYs (Disability-Adjusted Life Years)',Belize,Number,0.539627,2019,0.516627,0.53917
1,'DALYs (Disability-Adjusted Life Years)',Belize,Percent,0.000004,2019,0.000004,0.000004
1,'DALYs (Disability-Adjusted Life Years)',Belize,Rate,0.136913,2019,0.131078,0.136798
1,'DALYs (Disability-Adjusted Life Years)','Trinidad and Tobago',Percent,0.000006,2019,0.000006,0.000006
1,'DALYs (Disability-Adjusted Life Years)','Trinidad and Tobago',Rate,0.265843,2019,0.254933,0.26423
1,'DALYs (Disability-Adjusted Life Years)',Albania,Percent,0.000008,2019,0.000009,0.000008
1,'DALYs (Disability-Adjusted Life Years)',Albania,Rate,0.282535,2019,0.284455,0.271803
1,'DALYs (Disability-Adjusted Life Years)','Viet Nam',Percent,0.000006,2018,0.000007,0.000006
1,'DALYs (Disability-Adjusted Life Years)','Viet Nam',Rate,0.205703,2018,0.210834,0.192033
1,'DALYs (Disability-Adjusted Life Years)',Eswatini,Percent,0.000002,2017,0.000003,0.000001
1,'DALYs (Disability-Adjusted Life Years)',Eswatini,Rate,0.18962,2017,0.24078,0.143015
1,'DALYs (Disability-Adjusted Life Years)',Cuba,Percent,0.00001,2018,0.00001,0.000009
1,'DALYs (Disability-Adjusted Life Years)',Cuba,Rate,0.357745,2018,0.33827,0.360031
1,'DALYs (Disability-Adjusted Life Years)',Nicaragua,Percent,0.000004,2018,0.000004,0.000004
1,'DALYs (Disability-Adjusted Life Years)',Nicaragua,Rate,0.129803,2018,0.131203,0.126959
1,'DALYs (Disability-Adjusted Life Years)',Japan,Percent,0.000012,2018,0.000013,0.000011
1,'DALYs (Disability-Adjusted Life Years)',Japan,Rate,0.410691,2018,0.399614,0.385998
1,'DALYs (Disability-Adjusted Life Years)',Zambia,Percent,0.000002,2017,0.000002,0.000001
1,'DALYs (Disability-Adjusted Life Years)',Zambia,Rate,0.143449,2017,0.153244,0.130556
1,'DALYs (Disability-Adjusted Life Years)',Panama,Percent,0.000006,2019,0.000006,0.000005
1,'DALYs (Disability-Adjusted Life Years)',Panama,Rate,0.177253,2019,0.168383,0.177954
1,'DALYs (Disability-Adjusted Life Years)','American Samoa',Number,0.113152,2018,0.115097,0.106755
1,'DALYs (Disability-Adjusted Life Years)','American Samoa',Percent,0.000006,2018,0.000006,0.000005
1,'DALYs (Disability-Adjusted Life Years)','American Samoa',Rate,0.216974,2018,0.220703,0.204706
1,'DALYs (Disability-Adjusted Life Years)',Panama,Percent,0.000006,2017,0.000006,0.000005
1,'DALYs (Disability-Adjusted Life Years)',Panama,Rate,0.171536,2017,0.162823,0.17263
1,'DALYs (Disability-Adjusted Life Years)',Ethiopia,Percent,0.000003,2017,0.000003,0.000003
1,'DALYs (Disability-Adjusted Life Years)',Ethiopia,Rate,0.197674,2017,0.209728,0.183317
1,'DALYs (Disability-Adjusted Life Years)',Eritrea,Percent,0.000003,2018,0.000003,0.000003
1,'DALYs (Disability-Adjusted Life Years)',Eritrea,Rate,0.210071,2018,0.221453,0.194591
1,'DALYs (Disability-Adjusted Life Years)','Taiwan (Province of China)',Percent,0.000012,2019,0.000012,0.000011
1,'DALYs (Disability-Adjusted Life Years)','Taiwan (Province of China)',Rate,0.371366,2019,0.352078,0.370762
1,'DALYs (Disability-Adjusted Life Years)',Denmark,Percent,0.000013,2018,0.000013,0.000012
1,'DALYs (Disability-Adjusted Life Years)',Denmark,Rate,0.421097,2018,0.40202,0.413972
1,'DALYs (Disability-Adjusted Life Years)',Palestine,Percent,0.000004,2018,0.000004,0.000004
1,'DALYs (Disability-Adjusted Life Years)',Palestine,Rate,0.096019,2018,0.093443,0.092475
1,'DALYs (Disability-Adjusted Life Years)',Ireland,Percent,0.000011,2018,0.000011,0.00001
1,'DALYs (Disability-Adjusted Life Years)',Ireland,Rate,0.281013,2018,0.268664,0.276096
1,'DALYs (Disability-Adjusted Life Years)',Guinea-Bissau,Percent,0.000001,2018,0.000001,0.000001
1,'DALYs (Disability-Adjusted Life Years)',Guinea-Bissau,Rate,0.104685,2018,0.113249,0.090485
1,'DALYs (Disability-Adjusted Life Years)','North Macedonia',Percent,0.000011,2018,0.000011,0.00001
1,'DALYs (Disability-Adjusted Life Years)','North Macedonia',Rate,0.395835,2018,0.381544,0.387251
1,'DALYs (Disability-Adjusted Life Years)','Puerto Rico',Percent,0.000006,2017,0.000007,0.000005
1,'DALYs (Disability-Adjusted Life Years)','Puerto Rico',Rate,0.256627,2017,0.244231,0.255802
1,'DALYs (Disability-Adjusted Life Years)','Republic of Moldova',Percent,0.000007,2019,0.000007,0.000007
1,'DALYs (Disability-Adjusted Life Years)','Republic of Moldova',Rate,0.310471,2019,0.295883,0.311729
1,'DALYs (Disability-Adjusted Life Years)',Iraq,Percent,0.000004,2017,0.000004,0.000003
1,'DALYs (Disability-Adjusted Life Years)',Iraq,Rate,0.160193,2017,0.161573,0.152442
1,'DALYs (Disability-Adjusted Life Years)','Bosnia and Herzegovina',Percent,0.000011,2018,0.000011,0.00001
1,'DALYs (Disability-Adjusted Life Years)','Bosnia and Herzegovina',Rate,0.430323,2018,0.418533,0.423037
1,'DALYs (Disability-Adjusted Life Years)','Costa Rica',Percent,0.000007,2018,0.000007,0.000006
1,'DALYs (Disability-Adjusted Life Years)','Costa Rica',Rate,0.190039,2018,0.179819,0.190559
1,'DALYs (Disability-Adjusted Life Years)',Zimbabwe,Percent,0.000001,2018,0.000001,0.000001
1,'DALYs (Disability-Adjusted Life Years)',Zimbabwe,Rate,0.12005,2018,0.130818,0.100918
1,'DALYs (Disability-Adjusted Life Years)',Rwanda,Percent,0.000003,2017,0.000003,0.000003
1,'DALYs (Disability-Adjusted Life Years)',Rwanda,Rate,0.168614,2017,0.176992,0.156988
1,'DALYs (Disability-Adjusted Life Years)',Samoa,Number,0.198575,2017,0.217438,0.17492
1,'DALYs (Disability-Adjusted Life Years)',Samoa,Percent,0.000002,2017,0.000003,0.000002
1,'DALYs (Disability-Adjusted Life Years)',Samoa,Rate,0.096826,2017,0.106023,0.085291
1,'DALYs (Disability-Adjusted Life Years)',Finland,Percent,0.00001,2019,0.00001,0.000009
1,'DALYs (Disability-Adjusted Life Years)',Finland,Rate,0.34504,2019,0.330477,0.335323
1,'DALYs (Disability-Adjusted Life Years)',Jamaica,Percent,0.000007,2018,0.000007,0.000007
1,'DALYs (Disability-Adjusted Life Years)',Jamaica,Rate,0.260279,2018,0.250751,0.259865
1,'DALYs (Disability-Adjusted Life Years)',Andorra,Number,0.280345,2017,0.277829,0.267439
1,'DALYs (Disability-Adjusted Life Years)',Andorra,Percent,0.000013,2017,0.000013,0.000012
1,'DALYs (Disability-Adjusted Life Years)',Andorra,Rate,0.350068,2017,0.346926,0.333952
1,'DALYs (Disability-Adjusted Life Years)',Monaco,Number,0.286542,2017,0.299525,0.258127
1,'DALYs (Disability-Adjusted Life Years)',Monaco,Percent,0.00002,2017,0.000021,0.000017
1,'DALYs (Disability-Adjusted Life Years)',Monaco,Rate,0.759409,2017,0.793817,0.684101
1,'DALYs (Disability-Adjusted Life Years)',Haiti,Percent,0.000002,2017,0.000002,0.000002
1,'DALYs (Disability-Adjusted Life Years)',Haiti,Rate,0.157041,2017,0.165585,0.142308
1,'DALYs (Disability-Adjusted Life Years)',Israel,Percent,0.00001,2017,0.00001,0.000009
1,'DALYs (Disability-Adjusted Life Years)',Israel,Rate,0.211274,2017,0.202085,0.20745
1,'DALYs (Disability-Adjusted Life Years)',Chile,Percent,0.000009,2017,0.000009,0.000008
1,'DALYs (Disability-Adjusted Life Years)',Chile,Rate,0.242993,2017,0.229612,0.243322
1,'DALYs (Disability-Adjusted Life Years)','United Arab Emirates',Percent,0.000002,2019,0.000002,0.000002
1,'DALYs (Disability-Adjusted Life Years)','United Arab Emirates',Rate,0.049148,2019,0.051575,0.046388
1,'DALYs (Disability-Adjusted Life Years)',Andorra,Number,0.296453,2019,0.294318,0.283502
1,'DALYs (Disability-Adjusted Life Years)',Andorra,Percent,0.000013,2019,0.000014,0.000012
1,'DALYs (Disability-Adjusted Life Years)',Andorra,Rate,0.362871,2019,0.360257,0.347017
1,'DALYs (Disability-Adjusted Life Years)',Norway,Percent,0.000011,2019,0.000011,0.00001
1,'DALYs (Disability-Adjusted Life Years)',Norway,Rate,0.31012,2019,0.297607,0.303075
1,'DALYs (Disability-Adjusted Life Years)',Gabon,Percent,0.000003,2018,0.000003,0.000002
1,'DALYs (Disability-Adjusted Life Years)',Gabon,Rate,0.167865,2018,0.177628,0.15104
1,'DALYs (Disability-Adjusted Life Years)',Philippines,Percent,0.000004,2017,0.000003,0.000004
1,'DALYs (Disability-Adjusted Life Years)',Philippines,Rate,0.139297,2017,0.134976,0.138185
1,'DALYs (Disability-Adjusted Life Years)',Argentina,Percent,0.000009,2018,0.000009,0.000008
1,'DALYs (Disability-Adjusted Life Years)',Argentina,Rate,0.273636,2018,0.257553,0.277407
1,'DALYs (Disability-Adjusted Life Years)','Papua New Guinea',Percent,0.000002,2019,0.000002,0.000002
1,'DALYs (Disability-Adjusted Life Years)','Papua New Guinea',Rate,0.125924,2019,0.131629,0.113233
1,'DALYs (Disability-Adjusted Life Years)',Haiti,Percent,0.000002,2019,0.000002,0.000002
1,'DALYs (Disability-Adjusted Life Years)',Haiti,Rate,0.16788,2019,0.177902,0.151739
1,'DALYs (Disability-Adjusted Life Years)','El Salvador',Percent,0.000004,2017,0.000005,0.000004
1,'DALYs (Disability-Adjusted Life Years)','El Salvador',Rate,0.185707,2017,0.18337,0.183204
1,'DALYs (Disability-Adjusted Life Years)','Russian Federation',Percent,0.000007,2018,0.000007,0.000007
1,'DALYs (Disability-Adjusted Life Years)','Russian Federation',Rate,0.363206,2018,0.341469,0.368288
1,'DALYs (Disability-Adjusted Life Years)',Norway,Percent,0.000011,2017,0.000011,0.00001
1,'DALYs (Disability-Adjusted Life Years)',Norway,Rate,0.317949,2017,0.305156,0.310304
1,'DALYs (Disability-Adjusted Life Years)',Portugal,Percent,0.000012,2018,0.000012,0.000011
1,'DALYs (Disability-Adjusted Life Years)',Portugal,Rate,0.406805,2018,0.388848,0.39719
1,'DALYs (Disability-Adjusted Life Years)',Samoa,Number,0.210455,2019,0.230699,0.184995
1,'DALYs (Disability-Adjusted Life Years)',Samoa,Percent,0.000002,2019,0.000002,0.000002
1,'DALYs (Disability-Adjusted Life Years)',Samoa,Rate,0.100481,2019,0.110147,0.088325
1,'DALYs (Disability-Adjusted Life Years)',Armenia,Percent,0.000008,2018,0.000008,0.000008
1,'DALYs (Disability-Adjusted Life Years)',Armenia,Rate,0.295979,2018,0.281698,0.29697
1,'DALYs (Disability-Adjusted Life Years)','Central African Republic',Percent,0,2017,0,0
1,'DALYs (Disability-Adjusted Life Years)','Central African Republic',Rate,0.10449,2017,0.115978,0.084989
1,'DALYs (Disability-Adjusted Life Years)','South Sudan',Percent,0.000002,2017,0.000002,0.000002
1,'DALYs (Disability-Adjusted Life Years)','South Sudan',Rate,0.199567,2017,0.211862,0.180522
1,'DALYs (Disability-Adjusted Life Years)',Mongolia,Percent,0.000008,2018,0.000008,0.000008
1,'DALYs (Disability-Adjusted Life Years)',Mongolia,Rate,0.278029,2018,0.270953,0.270597
1,'DALYs (Disability-Adjusted Life Years)',Algeria,Percent,0.000003,2018,0.000003,0.000002
1,'DALYs (Disability-Adjusted Life Years)',Algeria,Rate,0.107602,2018,0.118654,0.093249
1,'DALYs (Disability-Adjusted Life Years)',Finland,Percent,0.00001,2017,0.00001,0.000009
1,'DALYs (Disability-Adjusted Life Years)',Finland,Rate,0.345803,2017,0.331825,0.335593
1,'DALYs (Disability-Adjusted Life Years)',Oman,Percent,0.000002,2017,0.000002,0.000002
1,'DALYs (Disability-Adjusted Life Years)',Oman,Rate,0.065668,2017,0.066366,0.061676
1,'DALYs (Disability-Adjusted Life Years)',Tajikistan,Percent,0.000003,2017,0.000003,0.000002
1,'DALYs (Disability-Adjusted Life Years)',Tajikistan,Rate,0.094032,2017,0.101492,0.089506
1,'DALYs (Disability-Adjusted Life Years)',Jordan,Percent,0.000005,2018,0.000005,0.000004
1,'DALYs (Disability-Adjusted Life Years)',Jordan,Rate,0.114768,2018,0.112876,0.111295
1,'DALYs (Disability-Adjusted Life Years)',Montenegro,Percent,0.000011,2019,0.000011,0.00001
1,'DALYs (Disability-Adjusted Life Years)',Montenegro,Rate,0.375086,2019,0.370685,0.35692
1,'DALYs (Disability-Adjusted Life Years)',Bangladesh,Percent,0.000004,2017,0.000004,0.000003
1,'DALYs (Disability-Adjusted Life Years)',Bangladesh,Rate,0.150467,2017,0.15444,0.141414
1,'DALYs (Disability-Adjusted Life Years)','Republic of Korea',Percent,0.00001,2018,0.000011,0.000009
1,'DALYs (Disability-Adjusted Life Years)','Republic of Korea',Rate,0.267906,2018,0.265515,0.256656
1,'DALYs (Disability-Adjusted Life Years)',Chad,Percent,0,2017,0,0
1,'DALYs (Disability-Adjusted Life Years)',Chad,Rate,0.094796,2017,0.104061,0.083912
1,'DALYs (Disability-Adjusted Life Years)','Sierra Leone',Percent,0,2017,0,0.000001
1,'DALYs (Disability-Adjusted Life Years)','Sierra Leone',Rate,0.115695,2017,0.11974,0.107365
1,'DALYs (Disability-Adjusted Life Years)',Kuwait,Percent,0.000003,2017,0.000003,0.000003
1,'DALYs (Disability-Adjusted Life Years)',Kuwait,Rate,0.070573,2017,0.067574,0.070329
1,'DALYs (Disability-Adjusted Life Years)',Ukraine,Percent,0.000007,2017,0.000006,0.000006
1,'DALYs (Disability-Adjusted Life Years)',Ukraine,Rate,0.337471,2017,0.318707,0.343456
1,'DALYs (Disability-Adjusted Life Years)',Belgium,Percent,0.000012,2017,0.000012,0.000011
1,'DALYs (Disability-Adjusted Life Years)',Belgium,Rate,0.384436,2017,0.368158,0.374517
1,'DALYs (Disability-Adjusted Life Years)',Oman,Percent,0.000002,2019,0.000003,0.000002
1,'DALYs (Disability-Adjusted Life Years)',Oman,Rate,0.063174,2019,0.064629,0.0588
1,'DALYs (Disability-Adjusted Life Years)',Cambodia,Percent,0.000003,2017,0.000003,0.000003
1,'DALYs (Disability-Adjusted Life Years)',Cambodia,Rate,0.115744,2017,0.120078,0.107077
1,'DALYs (Disability-Adjusted Life Years)',Bermuda,Number,0.219188,2017,0.210166,0.213711
1,'DALYs (Disability-Adjusted Life Years)',Bermuda,Percent,0.000011,2017,0.000011,0.00001
1,'DALYs (Disability-Adjusted Life Years)',Bermuda,Rate,0.336984,2017,0.323113,0.328564
1,'DALYs (Disability-Adjusted Life Years)',Luxembourg,Percent,0.000011,2019,0.000011,0.00001
1,'DALYs (Disability-Adjusted Life Years)',Luxembourg,Rate,0.281084,2019,0.269862,0.277301
1,'DALYs (Disability-Adjusted Life Years)',Singapore,Percent,0.000009,2017,0.000009,0.000008
1,'DALYs (Disability-Adjusted Life Years)',Singapore,Rate,0.179641,2017,0.171665,0.178654
1,'DALYs (Disability-Adjusted Life Years)',Kenya,Percent,0.000003,2017,0.000003,0.000002
1,'DALYs (Disability-Adjusted Life Years)',Kenya,Rate,0.140387,2017,0.145813,0.127363
1,'DALYs (Disability-Adjusted Life Years)',Turkmenistan,Percent,0.000003,2017,0.000003,0.000003
1,'DALYs (Disability-Adjusted Life Years)',Turkmenistan,Rate,0.151703,2017,0.145473,0.151046
1,'DALYs (Disability-Adjusted Life Years)',Chile,Percent,0.000009,2019,0.000009,0.000008
1,'DALYs (Disability-Adjusted Life Years)',Chile,Rate,0.245023,2019,0.231409,0.245485
1,'DALYs (Disability-Adjusted Life Years)',Philippines,Percent,0.000004,2019,0.000004,0.000004
1,'DALYs (Disability-Adjusted Life Years)',Philippines,Rate,0.138622,2019,0.135592,0.137016
1,'DALYs (Disability-Adjusted Life Years)',Yemen,Percent,0.000001,2018,0.000001,0.000001
1,'DALYs (Disability-Adjusted Life Years)',Yemen,Rate,0.074955,2018,0.083445,0.061691
1,'DALYs (Disability-Adjusted Life Years)',Bangladesh,Percent,0.000004,2019,0.000004,0.000004
1,'DALYs (Disability-Adjusted Life Years)',Bangladesh,Rate,0.162035,2019,0.168307,0.153081
1,'DALYs (Disability-Adjusted Life Years)',Myanmar,Percent,0.000003,2018,0.000003,0.000003
1,'DALYs (Disability-Adjusted Life Years)',Myanmar,Rate,0.169422,2018,0.177177,0.154041
1,'DALYs (Disability-Adjusted Life Years)',Turkmenistan,Percent,0.000004,2019,0.000003,0.000003
1,'DALYs (Disability-Adjusted Life Years)',Turkmenistan,Rate,0.155051,2019,0.150649,0.152233
1,'DALYs (Disability-Adjusted Life Years)',Croatia,Percent,0.000012,2018,0.000012,0.000012
1,'DALYs (Disability-Adjusted Life Years)',Croatia,Rate,0.495967,2018,0.467822,0.499621
1,'DALYs (Disability-Adjusted Life Years)','Dominican Republic',Percent,0.000004,2019,0.000004,0.000004
1,'DALYs (Disability-Adjusted Life Years)','Dominican Republic',Rate,0.165134,2019,0.162198,0.154332
1,'DALYs (Disability-Adjusted Life Years)','Saudi Arabia',Percent,0.000003,2018,0.000003,0.000002
1,'DALYs (Disability-Adjusted Life Years)','Saudi Arabia',Rate,0.078581,2018,0.086988,0.073438
1,'DALYs (Disability-Adjusted Life Years)',Mali,Percent,0.000001,2018,0.000001,0.000001
1,'DALYs (Disability-Adjusted Life Years)',Mali,Rate,0.134293,2018,0.13868,0.124261
1,'DALYs (Disability-Adjusted Life Years)',Belarus,Percent,0.000008,2018,0.000008,0.000008
1,'DALYs (Disability-Adjusted Life Years)',Belarus,Rate,0.354846,2018,0.335963,0.359769
1,'DALYs (Disability-Adjusted Life Years)',Tonga,Number,0.201815,2017,0.21187,0.184925
1,'DALYs (Disability-Adjusted Life Years)',Tonga,Percent,0.000006,2017,0.000006,0.000005
1,'DALYs (Disability-Adjusted Life Years)',Tonga,Rate,0.193976,2017,0.203639,0.177741
1,'DALYs (Disability-Adjusted Life Years)','El Salvador',Percent,0.000005,2019,0.000005,0.000005
1,'DALYs (Disability-Adjusted Life Years)','El Salvador',Rate,0.195329,2019,0.19469,0.19164
1,'DALYs (Disability-Adjusted Life Years)',Niue,Number,0.004048,2017,0.004175,0.003762
1,'DALYs (Disability-Adjusted Life Years)',Niue,Percent,0.000005,2017,0.000005,0.000005
1,'DALYs (Disability-Adjusted Life Years)',Niue,Rate,0.247307,2017,0.25507,0.229816
1,'DALYs (Disability-Adjusted Life Years)',Bulgaria,Percent,0.000009,2019,0.000009,0.000009
1,'DALYs (Disability-Adjusted Life Years)',Bulgaria,Rate,0.449863,2019,0.425353,0.454339
1,'DALYs (Disability-Adjusted Life Years)',Nauru,Number,0.028676,2018,0.03162,0.02537
1,'DALYs (Disability-Adjusted Life Years)',Nauru,Percent,0.000004,2018,0.000005,0.000004
1,'DALYs (Disability-Adjusted Life Years)',Nauru,Rate,0.251086,2018,0.276866,0.222144
1,'DALYs (Disability-Adjusted Life Years)',Fiji,Percent,0.000004,2018,0.000004,0.000004
1,'DALYs (Disability-Adjusted Life Years)',Fiji,Rate,0.193303,2018,0.194216,0.184392
1,'DALYs (Disability-Adjusted Life Years)','Saint Lucia',Number,0.408783,2017,0.396464,0.404149
1,'DALYs (Disability-Adjusted Life Years)','Saint Lucia',Percent,0.000007,2017,0.000007,0.000006
1,'DALYs (Disability-Adjusted Life Years)','Saint Lucia',Rate,0.233018,2017,0.225996,0.230377
1,'DALYs (Disability-Adjusted Life Years)',Benin,Percent,0.000001,2018,0,0
1,'DALYs (Disability-Adjusted Life Years)',Benin,Rate,0.086248,2018,0.090505,0.075294
1,'DALYs (Disability-Adjusted Life Years)','Saint Kitts and Nevis',Number,0.113718,2018,0.109862,0.112569
1,'DALYs (Disability-Adjusted Life Years)','Saint Kitts and Nevis',Percent,0.000006,2018,0.000006,0.000006
1,'DALYs (Disability-Adjusted Life Years)','Saint Kitts and Nevis',Rate,0.234631,2018,0.226674,0.232259
1,'DALYs (Disability-Adjusted Life Years)',Angola,Percent,0.000001,2018,0.000001,0.000001
1,'DALYs (Disability-Adjusted Life Years)',Angola,Rate,0.114123,2018,0.119762,0.102769
1,'DALYs (Disability-Adjusted Life Years)',Seychelles,Number,0.265534,2018,0.261731,0.257762
1,'DALYs (Disability-Adjusted Life Years)',Seychelles,Percent,0.000008,2018,0.000008,0.000007
1,'DALYs (Disability-Adjusted Life Years)',Seychelles,Rate,0.259468,2018,0.255752,0.251874
1,'DALYs (Disability-Adjusted Life Years)',Thailand,Percent,0.000009,2017,0.000009,0.000008
1,'DALYs (Disability-Adjusted Life Years)',Thailand,Rate,0.31264,2017,0.31837,0.304842
1,'DALYs (Disability-Adjusted Life Years)',Tajikistan,Percent,0.000003,2019,0.000003,0.000003
1,'DALYs (Disability-Adjusted Life Years)',Tajikistan,Rate,0.097549,2019,0.106831,0.092041
1,'DALYs (Disability-Adjusted Life Years)',Dominica,Number,0.210242,2018,0.209654,0.20262
1,'DALYs (Disability-Adjusted Life Years)',Dominica,Percent,0.000008,2018,0.000009,0.000008
1,'DALYs (Disability-Adjusted Life Years)',Dominica,Rate,0.300088,2018,0.299249,0.289208
1,'DALYs (Disability-Adjusted Life Years)',Peru,Percent,0.000006,2017,0.000006,0.000005
1,'DALYs (Disability-Adjusted Life Years)',Peru,Rate,0.162126,2017,0.15528,0.159761
1,'DALYs (Disability-Adjusted Life Years)',Belgium,Percent,0.000011,2019,0.000011,0.00001
1,'DALYs (Disability-Adjusted Life Years)',Belgium,Rate,0.367004,2019,0.35258,0.356391
1,'DALYs (Disability-Adjusted Life Years)',Botswana,Percent,0.000002,2017,0.000002,0.000002
1,'DALYs (Disability-Adjusted Life Years)',Botswana,Rate,0.117886,2017,0.134734,0.097193
1,'DALYs (Disability-Adjusted Life Years)','San Marino',Number,0.097221,2017,0.098301,0.090151
1,'DALYs (Disability-Adjusted Life Years)','San Marino',Percent,0.00001,2017,0.000011,0.000009
1,'DALYs (Disability-Adjusted Life Years)','San Marino',Rate,0.281688,2017,0.284816,0.261201
1,'DALYs (Disability-Adjusted Life Years)','Cook Islands',Number,0.053883,2018,0.055766,0.0501
1,'DALYs (Disability-Adjusted Life Years)','Cook Islands',Percent,0.000008,2018,0.000008,0.000007
1,'DALYs (Disability-Adjusted Life Years)','Cook Islands',Rate,0.320595,2018,0.331798,0.298084
1,'DALYs (Disability-Adjusted Life Years)',Germany,Percent,0.000012,2019,0.000012,0.000011
1,'DALYs (Disability-Adjusted Life Years)',Germany,Rate,0.430601,2019,0.409068,0.423525
1,'DALYs (Disability-Adjusted Life Years)','Venezuela (Bolivarian Republic of)',Percent,0.000005,2018,0.000005,0.000005
1,'DALYs (Disability-Adjusted Life Years)','Venezuela (Bolivarian Republic of)',Rate,0.198807,2018,0.188652,0.199614
1,'DALYs (Disability-Adjusted Life Years)',Poland,Percent,0.000012,2018,0.000012,0.000012
1,'DALYs (Disability-Adjusted Life Years)',Poland,Rate,0.463909,2018,0.437979,0.465582
1,'DALYs (Disability-Adjusted Life Years)',Romania,Percent,0.00001,2017,0.00001,0.00001
1,'DALYs (Disability-Adjusted Life Years)',Romania,Rate,0.442036,2017,0.417024,0.451066
1,'DALYs (Disability-Adjusted Life Years)',Italy,Percent,0.000012,2018,0.000013,0.000011
1,'DALYs (Disability-Adjusted Life Years)',Italy,Rate,0.404558,2018,0.390284,0.390454
1,'DALYs (Disability-Adjusted Life Years)',Bulgaria,Percent,0.000009,2017,0.000009,0.000009
1,'DALYs (Disability-Adjusted Life Years)',Bulgaria,Rate,0.443188,2017,0.420323,0.448965
1,'DALYs (Disability-Adjusted Life Years)',Liberia,Percent,0.000001,2017,0.000001,0.000001
1,'DALYs (Disability-Adjusted Life Years)',Liberia,Rate,0.124553,2017,0.133354,0.107893
1,'DALYs (Disability-Adjusted Life Years)',Cambodia,Percent,0.000003,2019,0.000003,0.000003
1,'DALYs (Disability-Adjusted Life Years)',Cambodia,Rate,0.119836,2019,0.12642,0.111187
1,'DALYs (Disability-Adjusted Life Years)','Côte dIvoire',Percent,0.000001,2018,0.000001,0.000001
1,'DALYs (Disability-Adjusted Life Years)','Côte dIvoire',Rate,0.115545,2018,0.123987,0.10313
1,'DALYs (Disability-Adjusted Life Years)',Kiribati,Number,0.133323,2017,0.144787,0.112987
1,'DALYs (Disability-Adjusted Life Years)',Kiribati,Percent,0.000002,2017,0.000002,0.000002
1,'DALYs (Disability-Adjusted Life Years)',Kiribati,Rate,0.114564,2017,0.124415,0.097089
1,'DALYs (Disability-Adjusted Life Years)',Austria,Percent,0.000011,2018,0.000011,0.00001
1,'DALYs (Disability-Adjusted Life Years)',Austria,Rate,0.356218,2018,0.338635,0.351446
1,'DALYs (Disability-Adjusted Life Years)',Bhutan,Percent,0.000004,2018,0.000004,0.000003
1,'DALYs (Disability-Adjusted Life Years)',Bhutan,Rate,0.142063,2018,0.148434,0.129882
1,'DALYs (Disability-Adjusted Life Years)',Ecuador,Percent,0.000005,2018,0.000005,0.000005
1,'DALYs (Disability-Adjusted Life Years)',Ecuador,Rate,0.149179,2018,0.140812,0.15067
1,'DALYs (Disability-Adjusted Life Years)','Democratic Peoples Republic of Korea',Percent,0.000007,2017,0.000007,0.000006
1,'DALYs (Disability-Adjusted Life Years)','Democratic Peoples Republic of Korea',Rate,0.255159,2017,0.272579,0.232762
1,'DALYs (Disability-Adjusted Life Years)',Comoros,Number,0.643842,2017,0.656306,0.601195
1,'DALYs (Disability-Adjusted Life Years)',Comoros,Percent,0.000001,2017,0.000002,0.000001
1,'DALYs (Disability-Adjusted Life Years)',Comoros,Rate,0.082397,2017,0.083992,0.076939
1,'DALYs (Disability-Adjusted Life Years)',France,Percent,0.000013,2018,0.000013,0.000012
1,'DALYs (Disability-Adjusted Life Years)',France,Rate,0.394934,2018,0.378422,0.384912
1,'DALYs (Disability-Adjusted Life Years)','Solomon Islands',Percent,0.000004,2018,0.000004,0.000004
1,'DALYs (Disability-Adjusted Life Years)','Solomon Islands',Rate,0.178208,2018,0.186413,0.161743
1,'DALYs (Disability-Adjusted Life Years)',Spain,Percent,0.000012,2019,0.000012,0.000011
1,'DALYs (Disability-Adjusted Life Years)',Spain,Rate,0.352889,2019,0.337244,0.343601
1,'DALYs (Disability-Adjusted Life Years)',Uzbekistan,Percent,0.000003,2018,0.000003,0.000003
1,'DALYs (Disability-Adjusted Life Years)',Uzbekistan,Rate,0.132345,2018,0.124767,0.134112
1,'DALYs (Disability-Adjusted Life Years)',Denmark,Percent,0.000013,2017,0.000013,0.000012
1,'DALYs (Disability-Adjusted Life Years)',Denmark,Rate,0.422579,2017,0.402643,0.414246
1,'DALYs (Disability-Adjusted Life Years)',Spain,Percent,0.000012,2017,0.000012,0.000011
1,'DALYs (Disability-Adjusted Life Years)',Spain,Rate,0.352911,2017,0.337195,0.344451
1,'DALYs (Disability-Adjusted Life Years)',Bahrain,Percent,0.000004,2019,0.000004,0.000004
1,'DALYs (Disability-Adjusted Life Years)',Bahrain,Rate,0.095245,2019,0.095331,0.089092
1,'DALYs (Disability-Adjusted Life Years)',Bahrain,Percent,0.000004,2017,0.000004,0.000003
1,'DALYs (Disability-Adjusted Life Years)',Bahrain,Rate,0.093124,2017,0.093695,0.088819
1,'DALYs (Disability-Adjusted Life Years)',Estonia,Percent,0.00001,2017,0.00001,0.00001
1,'DALYs (Disability-Adjusted Life Years)',Estonia,Rate,0.414299,2017,0.391884,0.415833
1,'DALYs (Disability-Adjusted Life Years)',Honduras,Percent,0.000003,2017,0.000003,0.000002
1,'DALYs (Disability-Adjusted Life Years)',Honduras,Rate,0.090382,2017,0.091979,0.08341
1,'DALYs (Disability-Adjusted Life Years)','Antigua and Barbuda',Number,0.199381,2017,0.193109,0.198835
1,'DALYs (Disability-Adjusted Life Years)','Antigua and Barbuda',Percent,0.000007,2017,0.000007,0.000007
1,'DALYs (Disability-Adjusted Life Years)','Antigua and Barbuda',Rate,0.222773,2017,0.215765,0.222163
1,'DALYs (Disability-Adjusted Life Years)',Ukraine,Percent,0.000007,2019,0.000006,0.000007
1,'DALYs (Disability-Adjusted Life Years)',Ukraine,Rate,0.339356,2019,0.321769,0.342937
1,'DALYs (Disability-Adjusted Life Years)','Bolivia (Plurinational State of)',Percent,0.000006,2019,0.000006,0.000006
1,'DALYs (Disability-Adjusted Life Years)','Bolivia (Plurinational State of)',Rate,0.237422,2019,0.240725,0.226689
1,'DALYs (Disability-Adjusted Life Years)',Uruguay,Percent,0.000012,2018,0.000012,0.000011
1,'DALYs (Disability-Adjusted Life Years)',Uruguay,Rate,0.417274,2018,0.395402,0.418796
1,'DALYs (Disability-Adjusted Life Years)',Kuwait,Percent,0.000003,2019,0.000003,0.000003
1,'DALYs (Disability-Adjusted Life Years)',Kuwait,Rate,0.07109,2019,0.068248,0.07113
1,'DALYs (Disability-Adjusted Life Years)','Saint Lucia',Number,0.41842,2019,0.406199,0.414892
1,'DALYs (Disability-Adjusted Life Years)','Saint Lucia',Percent,0.000007,2019,0.000007,0.000006
1,'DALYs (Disability-Adjusted Life Years)','Saint Lucia',Rate,0.236283,2019,0.229382,0.234291
1,'DALYs (Disability-Adjusted Life Years)',Qatar,Percent,0.000002,2018,0.000002,0.000001
1,'DALYs (Disability-Adjusted Life Years)',Qatar,Rate,0.036198,2018,0.038403,0.034187
1,'DALYs (Disability-Adjusted Life Years)',Luxembourg,Percent,0.000011,2017,0.000011,0.00001
1,'DALYs (Disability-Adjusted Life Years)',Luxembourg,Rate,0.293012,2017,0.28106,0.288691
1,'DALYs (Disability-Adjusted Life Years)','Dominican Republic',Percent,0.000004,2017,0.000004,0.000004
1,'DALYs (Disability-Adjusted Life Years)','Dominican Republic',Rate,0.155336,2017,0.152131,0.14566
1,'DALYs (Disability-Adjusted Life Years)',Somalia,Percent,0,2017,0,0
1,'DALYs (Disability-Adjusted Life Years)',Somalia,Rate,0.096473,2017,0.106517,0.08162
1,'DALYs (Disability-Adjusted Life Years)',Madagascar,Percent,0.000002,2018,0.000002,0.000002
1,'DALYs (Disability-Adjusted Life Years)',Madagascar,Rate,0.16007,2018,0.164805,0.151222
1,'DALYs (Disability-Adjusted Life Years)',China,Percent,0.00001,2018,0.00001,0.000009
1,'DALYs (Disability-Adjusted Life Years)',China,Rate,0.27541,2018,0.271003,0.271165
1,'DALYs (Disability-Adjusted Life Years)',Azerbaijan,Percent,0.000006,2019,0.000006,0.000005
1,'DALYs (Disability-Adjusted Life Years)',Azerbaijan,Rate,0.208507,2019,0.215671,0.19705
1,'DALYs (Disability-Adjusted Life Years)',Singapore,Percent,0.000009,2019,0.000009,0.000008
1,'DALYs (Disability-Adjusted Life Years)',Singapore,Rate,0.179302,2019,0.170958,0.177075
1,'DALYs (Disability-Adjusted Life Years)',Azerbaijan,Percent,0.000005,2017,0.000006,0.000005
1,'DALYs (Disability-Adjusted Life Years)',Azerbaijan,Rate,0.192732,2017,0.200345,0.180938
1,'DALYs (Disability-Adjusted Life Years)',Guatemala,Percent,0.000003,2018,0.000003,0.000003
1,'DALYs (Disability-Adjusted Life Years)',Guatemala,Rate,0.127031,2018,0.120803,0.128255
1,'DALYs (Disability-Adjusted Life Years)','South Africa',Percent,0.000003,2017,0.000003,0.000003
1,'DALYs (Disability-Adjusted Life Years)','South Africa',Rate,0.204881,2017,0.213321,0.188998
1,'DALYs (Disability-Adjusted Life Years)',Lesotho,Percent,0.000001,2018,0.000001,0.000001
1,'DALYs (Disability-Adjusted Life Years)',Lesotho,Rate,0.146001,2018,0.168053,0.124096
1,'DALYs (Disability-Adjusted Life Years)',Greece,Percent,0.000012,2017,0.000012,0.000011
1,'DALYs (Disability-Adjusted Life Years)',Greece,Rate,0.421749,2017,0.40173,0.414933
1,'DALYs (Disability-Adjusted Life Years)',Iceland,Number,0.978064,2018,0.944786,0.952511
1,'DALYs (Disability-Adjusted Life Years)',Iceland,Percent,0.000011,2018,0.000011,0.00001
1,'DALYs (Disability-Adjusted Life Years)',Iceland,Rate,0.28119,2018,0.271622,0.273843
1,'DALYs (Disability-Adjusted Life Years)',Sweden,Percent,0.000011,2018,0.000011,0.00001
1,'DALYs (Disability-Adjusted Life Years)',Sweden,Rate,0.3272,2018,0.313875,0.317664
1,'DALYs (Disability-Adjusted Life Years)',Egypt,Percent,0.000003,2018,0.000003,0.000003
1,'DALYs (Disability-Adjusted Life Years)',Egypt,Rate,0.12386,2018,0.124052,0.115342
1,'DALYs (Disability-Adjusted Life Years)',Tonga,Number,0.207979,2019,0.218711,0.189973
1,'DALYs (Disability-Adjusted Life Years)',Tonga,Percent,0.000006,2019,0.000006,0.000005
1,'DALYs (Disability-Adjusted Life Years)',Tonga,Rate,0.200078,2019,0.210401,0.182755
1,'DALYs (Disability-Adjusted Life Years)',Romania,Percent,0.00001,2019,0.00001,0.00001
1,'DALYs (Disability-Adjusted Life Years)',Romania,Rate,0.432221,2019,0.407967,0.439127
1,'DALYs (Disability-Adjusted Life Years)',Estonia,Percent,0.00001,2019,0.00001,0.00001
1,'DALYs (Disability-Adjusted Life Years)',Estonia,Rate,0.403122,2019,0.382118,0.402239
1,'DALYs (Disability-Adjusted Life Years)',Senegal,Percent,0.000001,2018,0.000001,0.000001
1,'DALYs (Disability-Adjusted Life Years)',Senegal,Rate,0.081388,2018,0.085355,0.074798
1,'DALYs (Disability-Adjusted Life Years)',Indonesia,Percent,0.000004,2018,0.000004,0.000004
1,'DALYs (Disability-Adjusted Life Years)',Indonesia,Rate,0.167195,2018,0.171864,0.158475
1,'DALYs (Disability-Adjusted Life Years)',Germany,Percent,0.000012,2017,0.000012,0.000011
1,'DALYs (Disability-Adjusted Life Years)',Germany,Rate,0.431093,2017,0.409186,0.425449
1,'DALYs (Disability-Adjusted Life Years)',Kiribati,Number,0.139854,2019,0.152033,0.119268
1,'DALYs (Disability-Adjusted Life Years)',Kiribati,Percent,0.000002,2019,0.000003,0.000002
1,'DALYs (Disability-Adjusted Life Years)',Kiribati,Rate,0.116548,2019,0.126698,0.099393
1,'DALYs (Disability-Adjusted Life Years)',Burundi,Percent,0.000001,2018,0.000001,0.000001
1,'DALYs (Disability-Adjusted Life Years)',Burundi,Rate,0.142909,2018,0.149645,0.129223
1,'DALYs (Disability-Adjusted Life Years)',Netherlands,Percent,0.000013,2017,0.000014,0.000012
1,'DALYs (Disability-Adjusted Life Years)',Netherlands,Rate,0.425103,2017,0.404155,0.415383
1,'DALYs (Disability-Adjusted Life Years)',Australia,Percent,0.00001,2017,0.00001,0.000009
1,'DALYs (Disability-Adjusted Life Years)',Australia,Rate,0.287449,2017,0.274531,0.280617
1,'DALYs (Disability-Adjusted Life Years)',Malawi,Percent,0.000003,2017,0.000003,0.000002
1,'DALYs (Disability-Adjusted Life Years)',Malawi,Rate,0.191777,2017,0.211859,0.162581
1,'DALYs (Disability-Adjusted Life Years)',Thailand,Percent,0.000009,2019,0.00001,0.000008
1,'DALYs (Disability-Adjusted Life Years)',Thailand,Rate,0.326168,2019,0.334451,0.318553
1,'DALYs (Disability-Adjusted Life Years)',Libya,Percent,0.000005,2017,0.000005,0.000004
1,'DALYs (Disability-Adjusted Life Years)',Libya,Rate,0.157209,2017,0.163565,0.141864
1,'DALYs (Disability-Adjusted Life Years)',Lebanon,Percent,0.000007,2018,0.000007,0.000006
1,'DALYs (Disability-Adjusted Life Years)',Lebanon,Rate,0.190671,2018,0.188318,0.183536
1,'DALYs (Disability-Adjusted Life Years)',Gambia,Percent,0,2017,0,0
1,'DALYs (Disability-Adjusted Life Years)',Gambia,Rate,0.068099,2017,0.076856,0.059845
1,'DALYs (Disability-Adjusted Life Years)',Congo,Percent,0.000001,2018,0.000002,0.000001
1,'DALYs (Disability-Adjusted Life Years)',Congo,Rate,0.115337,2018,0.12465,0.102527
1,'DALYs (Disability-Adjusted Life Years)',Niger,Percent,0,2018,0,0
1,'DALYs (Disability-Adjusted Life Years)',Niger,Rate,0.09144,2018,0.105562,0.078488
1,'DALYs (Disability-Adjusted Life Years)','Democratic Peoples Republic of Korea',Percent,0.000007,2019,0.000008,0.000006
1,'DALYs (Disability-Adjusted Life Years)','Democratic Peoples Republic of Korea',Rate,0.269463,2019,0.286412,0.241756
1,'DALYs (Disability-Adjusted Life Years)',Georgia,Percent,0.000009,2018,0.000009,0.000009
1,'DALYs (Disability-Adjusted Life Years)',Georgia,Rate,0.422753,2018,0.403566,0.422355
1,'DALYs (Disability-Adjusted Life Years)',Grenada,Number,0.321402,2018,0.312955,0.315395
1,'DALYs (Disability-Adjusted Life Years)',Grenada,Percent,0.000007,2018,0.000007,0.000007
1,'DALYs (Disability-Adjusted Life Years)',Grenada,Rate,0.282673,2018,0.275244,0.27739
1,'DALYs (Disability-Adjusted Life Years)',Tokelau,Number,0.002396,2018,0.002451,0.002249
1,'DALYs (Disability-Adjusted Life Years)',Tokelau,Percent,0.000004,2018,0.000004,0.000004
1,'DALYs (Disability-Adjusted Life Years)',Tokelau,Rate,0.152612,2018,0.156116,0.143227
1,'DALYs (Disability-Adjusted Life Years)',Greenland,Number,0.267356,2017,0.262698,0.259646
1,'DALYs (Disability-Adjusted Life Years)',Greenland,Percent,0.000011,2017,0.000011,0.00001
1,'DALYs (Disability-Adjusted Life Years)',Greenland,Rate,0.478634,2017,0.470295,0.46483
1,'DALYs (Disability-Adjusted Life Years)','Lao Peoples Democratic Republic',Percent,0.000003,2017,0.000003,0.000002
1,'DALYs (Disability-Adjusted Life Years)','Lao Peoples Democratic Republic',Rate,0.145552,2017,0.150968,0.133089
1,'DALYs (Disability-Adjusted Life Years)',Denmark,Percent,0.000013,2019,0.000013,0.000012
1,'DALYs (Disability-Adjusted Life Years)',Denmark,Rate,0.420378,2019,0.401447,0.413934
1,'DALYs (Disability-Adjusted Life Years)',Bahamas,Percent,0.000008,2018,0.000007,0.000007
1,'DALYs (Disability-Adjusted Life Years)',Bahamas,Rate,0.284831,2018,0.271967,0.28548
1,'DALYs (Disability-Adjusted Life Years)',Paraguay,Percent,0.000006,2019,0.000006,0.000005
1,'DALYs (Disability-Adjusted Life Years)',Paraguay,Rate,0.197313,2019,0.190513,0.186185
1,'DALYs (Disability-Adjusted Life Years)','United States of America',Percent,0.000008,2017,0.000008,0.000008
1,'DALYs (Disability-Adjusted Life Years)','United States of America',Rate,0.312851,2017,0.298654,0.307701
1,'DALYs (Disability-Adjusted Life Years)',Sudan,Percent,0.000002,2018,0.000003,0.000002
1,'DALYs (Disability-Adjusted Life Years)',Sudan,Rate,0.116606,2018,0.127939,0.096824
1,'DALYs (Disability-Adjusted Life Years)',Latvia,Percent,0.00001,2018,0.000009,0.000009
1,'DALYs (Disability-Adjusted Life Years)',Latvia,Rate,0.443488,2018,0.419032,0.444388
1,'DALYs (Disability-Adjusted Life Years)',Guyana,Percent,0.000003,2019,0.000003,0.000003
1,'DALYs (Disability-Adjusted Life Years)',Guyana,Rate,0.15507,2019,0.150907,0.153816
1,'DALYs (Disability-Adjusted Life Years)',Albania,Percent,0.000008,2018,0.000008,0.000008
1,'DALYs (Disability-Adjusted Life Years)',Albania,Rate,0.268246,2018,0.269218,0.256717
1,'DALYs (Disability-Adjusted Life Years)',Slovenia,Percent,0.000013,2017,0.000013,0.000012
1,'DALYs (Disability-Adjusted Life Years)',Slovenia,Rate,0.427939,2017,0.408302,0.421774
1,'DALYs (Disability-Adjusted Life Years)',Tunisia,Percent,0.000007,2018,0.000007,0.000006
1,'DALYs (Disability-Adjusted Life Years)',Tunisia,Rate,0.223067,2018,0.222618,0.217343
1,'DALYs (Disability-Adjusted Life Years)','Democratic Republic of the Congo',Percent,0.000001,2017,0.000001,0.000001
1,'DALYs (Disability-Adjusted Life Years)','Democratic Republic of the Congo',Rate,0.143474,2017,0.159564,0.113735
1,'DALYs (Disability-Adjusted Life Years)',Armenia,Percent,0.000008,2017,0.000008,0.000008
1,'DALYs (Disability-Adjusted Life Years)',Armenia,Rate,0.30303,2017,0.289703,0.303805
1,'DALYs (Disability-Adjusted Life Years)',Vanuatu,Number,0.289881,2018,0.304314,0.26417
1,'DALYs (Disability-Adjusted Life Years)',Vanuatu,Percent,0.000002,2018,0.000002,0.000002
1,'DALYs (Disability-Adjusted Life Years)',Vanuatu,Rate,0.097642,2018,0.102504,0.088982
1,'DALYs (Disability-Adjusted Life Years)',Israel,Percent,0.00001,2018,0.00001,0.000009
1,'DALYs (Disability-Adjusted Life Years)',Israel,Rate,0.209007,2018,0.200296,0.204467
1,'DALYs (Disability-Adjusted Life Years)',Guam,Number,0.38446,2018,0.371237,0.381714
1,'DALYs (Disability-Adjusted Life Years)',Guam,Percent,0.000007,2018,0.000007,0.000007
1,'DALYs (Disability-Adjusted Life Years)',Guam,Rate,0.238248,2018,0.230054,0.236547
1,'DALYs (Disability-Adjusted Life Years)','Costa Rica',Percent,0.000007,2017,0.000007,0.000006
1,'DALYs (Disability-Adjusted Life Years)','Costa Rica',Rate,0.187473,2017,0.177814,0.188223
1,'DALYs (Disability-Adjusted Life Years)',Palau,Number,0.064536,2017,0.065208,0.061249
1,'DALYs (Disability-Adjusted Life Years)',Palau,Percent,0.000008,2017,0.000008,0.000007
1,'DALYs (Disability-Adjusted Life Years)',Palau,Rate,0.357889,2017,0.361617,0.339659
1,'DALYs (Disability-Adjusted Life Years)','New Zealand',Percent,0.00001,2018,0.00001,0.000009
1,'DALYs (Disability-Adjusted Life Years)','New Zealand',Rate,0.307244,2018,0.294471,0.299467
1,'DALYs (Disability-Adjusted Life Years)',Tuvalu,Number,0.028215,2017,0.030121,0.025218
1,'DALYs (Disability-Adjusted Life Years)',Tuvalu,Percent,0.000004,2017,0.000005,0.000004
1,'DALYs (Disability-Adjusted Life Years)',Tuvalu,Rate,0.257082,2017,0.27445,0.229768
1,'DALYs (Disability-Adjusted Life Years)',India,Percent,0.000002,2017,0.000002,0.000002
1,'DALYs (Disability-Adjusted Life Years)',India,Rate,0.121627,2017,0.12217,0.118141
1,'DALYs (Disability-Adjusted Life Years)',Mexico,Percent,0.000004,2018,0.000004,0.000004
1,'DALYs (Disability-Adjusted Life Years)',Mexico,Rate,0.146869,2018,0.138098,0.149808
1,'DALYs (Disability-Adjusted Life Years)',Honduras,Percent,0.000003,2019,0.000003,0.000002
1,'DALYs (Disability-Adjusted Life Years)',Honduras,Rate,0.092569,2019,0.094575,0.085386
1,'DALYs (Disability-Adjusted Life Years)','Sri Lanka',Percent,0.000005,2018,0.000005,0.000005
1,'DALYs (Disability-Adjusted Life Years)','Sri Lanka',Rate,0.152127,2018,0.147743,0.146319
1,'DALYs (Disability-Adjusted Life Years)','Burkina Faso',Percent,0.000001,2017,0,0.000001
1,'DALYs (Disability-Adjusted Life Years)','Burkina Faso',Rate,0.077131,2017,0.079074,0.072502
1,'DALYs (Disability-Adjusted Life Years)',Nepal,Percent,0.000002,2018,0.000002,0.000002
1,'DALYs (Disability-Adjusted Life Years)',Nepal,Rate,0.092031,2018,0.095605,0.085617
1,'DALYs (Disability-Adjusted Life Years)',Mauritania,Percent,0.000002,2017,0.000002,0.000002
1,'DALYs (Disability-Adjusted Life Years)',Mauritania,Rate,0.117651,2017,0.127998,0.101498
1,'DALYs (Disability-Adjusted Life Years)',Czechia,Percent,0.000011,2017,0.000011,0.000011
1,'DALYs (Disability-Adjusted Life Years)',Czechia,Rate,0.418279,2017,0.393916,0.421095
1,'DALYs (Disability-Adjusted Life Years)',Japan,Percent,0.000012,2017,0.000013,0.000011
1,'DALYs (Disability-Adjusted Life Years)',Japan,Rate,0.410274,2017,0.398441,0.386685
1,'DALYs (Disability-Adjusted Life Years)',Brazil,Percent,0.000006,2018,0.000006,0.000006
1,'DALYs (Disability-Adjusted Life Years)',Brazil,Rate,0.215077,2018,0.201929,0.21605
1,'DALYs (Disability-Adjusted Life Years)',Greece,Percent,0.000012,2019,0.000012,0.000011
1,'DALYs (Disability-Adjusted Life Years)',Greece,Rate,0.416004,2019,0.396089,0.408465
1,'DALYs (Disability-Adjusted Life Years)','Marshall Islands',Number,0.09441,2018,0.100447,0.085285
1,'DALYs (Disability-Adjusted Life Years)','Marshall Islands',Percent,0.000004,2018,0.000005,0.000004
1,'DALYs (Disability-Adjusted Life Years)','Marshall Islands',Rate,0.199903,2018,0.212686,0.180583
1,'DALYs (Disability-Adjusted Life Years)','Northern Mariana Islands',Number,0.135561,2018,0.136662,0.128232
1,'DALYs (Disability-Adjusted Life Years)','Northern Mariana Islands',Percent,0.000007,2018,0.000008,0.000007
1,'DALYs (Disability-Adjusted Life Years)','Northern Mariana Islands',Rate,0.277441,2018,0.279694,0.262441
1,'DALYs (Disability-Adjusted Life Years)',Ghana,Percent,0.000001,2018,0.000001,0.000001
1,'DALYs (Disability-Adjusted Life Years)',Ghana,Rate,0.098991,2018,0.100971,0.090863
1,'DALYs (Disability-Adjusted Life Years)',Hungary,Percent,0.000012,2018,0.000012,0.000012
1,'DALYs (Disability-Adjusted Life Years)',Hungary,Rate,0.529697,2018,0.497773,0.535135
1,'DALYs (Disability-Adjusted Life Years)',Uganda,Percent,0.000003,2017,0.000003,0.000002
1,'DALYs (Disability-Adjusted Life Years)',Uganda,Rate,0.184048,2017,0.192137,0.166147
1,'DALYs (Disability-Adjusted Life Years)',Czechia,Percent,0.000011,2019,0.000011,0.000011
1,'DALYs (Disability-Adjusted Life Years)',Czechia,Rate,0.418424,2019,0.393555,0.422074
1,'DALYs (Disability-Adjusted Life Years)','American Samoa',Number,0.111861,2017,0.114183,0.105529
1,'DALYs (Disability-Adjusted Life Years)','American Samoa',Percent,0.000006,2017,0.000006,0.000005
1,'DALYs (Disability-Adjusted Life Years)','American Samoa',Rate,0.211874,2017,0.216272,0.199881
1,'DALYs (Disability-Adjusted Life Years)',Guyana,Percent,0.000003,2017,0.000003,0.000003
1,'DALYs (Disability-Adjusted Life Years)',Guyana,Rate,0.156585,2017,0.150957,0.154788
1,'DALYs (Disability-Adjusted Life Years)',Mozambique,Percent,0,2017,0,0
1,'DALYs (Disability-Adjusted Life Years)',Mozambique,Rate,0.075,2017,0.077114,0.068318
1,'DALYs (Disability-Adjusted Life Years)',France,Percent,0.000013,2017,0.000013,0.000012
1,'DALYs (Disability-Adjusted Life Years)',France,Rate,0.399543,2017,0.381917,0.390728
1,'DALYs (Disability-Adjusted Life Years)',India,Percent,0.000003,2019,0.000003,0.000003
1,'DALYs (Disability-Adjusted Life Years)',India,Rate,0.124961,2019,0.125103,0.121454
1,'DALYs (Disability-Adjusted Life Years)',Barbados,Percent,0.000009,2017,0.000009,0.000009
1,'DALYs (Disability-Adjusted Life Years)',Barbados,Rate,0.353127,2017,0.342263,0.349645
1,'DALYs (Disability-Adjusted Life Years)','Micronesia (Federated States of)',Number,0.198288,2017,0.199362,0.188228
1,'DALYs (Disability-Adjusted Life Years)','Micronesia (Federated States of)',Percent,0.000004,2017,0.000004,0.000004
1,'DALYs (Disability-Adjusted Life Years)','Micronesia (Federated States of)',Rate,0.190488,2017,0.191519,0.180824
1,'DALYs (Disability-Adjusted Life Years)',Serbia,Percent,0.000012,2018,0.000012,0.000011
1,'DALYs (Disability-Adjusted Life Years)',Serbia,Rate,0.478451,2018,0.457306,0.471241
1,'DALYs (Disability-Adjusted Life Years)',Zimbabwe,Percent,0.000001,2017,0.000001,0.000001
1,'DALYs (Disability-Adjusted Life Years)',Zimbabwe,Rate,0.119449,2017,0.132376,0.100518
1,'DALYs (Disability-Adjusted Life Years)',Malta,Percent,0.00001,2018,0.00001,0.000009
1,'DALYs (Disability-Adjusted Life Years)',Malta,Rate,0.292614,2018,0.28274,0.283254
1,'DALYs (Disability-Adjusted Life Years)','Viet Nam',Percent,0.000006,2017,0.000006,0.000006
1,'DALYs (Disability-Adjusted Life Years)','Viet Nam',Rate,0.200092,2017,0.204545,0.187835
1,'DALYs (Disability-Adjusted Life Years)',Paraguay,Percent,0.000005,2017,0.000005,0.000005
1,'DALYs (Disability-Adjusted Life Years)',Paraguay,Rate,0.186239,2017,0.179413,0.176824
1,'DALYs (Disability-Adjusted Life Years)','United States of America',Percent,0.000008,2019,0.000008,0.000007
1,'DALYs (Disability-Adjusted Life Years)','United States of America',Rate,0.305859,2019,0.2926,0.30091
1,'DALYs (Disability-Adjusted Life Years)','Bosnia and Herzegovina',Percent,0.000011,2017,0.000011,0.00001
1,'DALYs (Disability-Adjusted Life Years)','Bosnia and Herzegovina',Rate,0.426014,2017,0.413024,0.422079
1,'DALYs (Disability-Adjusted Life Years)',Slovenia,Percent,0.000012,2019,0.000012,0.000011
1,'DALYs (Disability-Adjusted Life Years)',Slovenia,Rate,0.414626,2019,0.395977,0.407582
1,'DALYs (Disability-Adjusted Life Years)',Gabon,Percent,0.000003,2017,0.000003,0.000002
1,'DALYs (Disability-Adjusted Life Years)',Gabon,Rate,0.168616,2017,0.178127,0.150969
1,'DALYs (Disability-Adjusted Life Years)',Canada,Percent,0.00001,2018,0.000011,0.000009
1,'DALYs (Disability-Adjusted Life Years)',Canada,Rate,0.333786,2018,0.317466,0.328861
1,'DALYs (Disability-Adjusted Life Years)','Lao Peoples Democratic Republic',Percent,0.000003,2019,0.000003,0.000003
1,'DALYs (Disability-Adjusted Life Years)','Lao Peoples Democratic Republic',Rate,0.154876,2019,0.162088,0.143073
1,'DALYs (Disability-Adjusted Life Years)',Cyprus,Percent,0.00001,2018,0.00001,0.000009
1,'DALYs (Disability-Adjusted Life Years)',Cyprus,Rate,0.272399,2018,0.270341,0.258954
1,'DALYs (Disability-Adjusted Life Years)',Peru,Percent,0.000006,2019,0.000006,0.000006
1,'DALYs (Disability-Adjusted Life Years)',Peru,Rate,0.176135,2019,0.169041,0.170596
1,'DALYs (Disability-Adjusted Life Years)','Iran (Islamic Republic of)',Percent,0.000005,2019,0.000006,0.000005
1,'DALYs (Disability-Adjusted Life Years)','Iran (Islamic Republic of)',Rate,0.152329,2019,0.152224,0.147354
1,'DALYs (Disability-Adjusted Life Years)','Antigua and Barbuda',Number,0.203926,2019,0.197383,0.201174
1,'DALYs (Disability-Adjusted Life Years)','Antigua and Barbuda',Percent,0.000007,2019,0.000007,0.000007
1,'DALYs (Disability-Adjusted Life Years)','Antigua and Barbuda',Rate,0.226388,2019,0.219125,0.223333
1,'DALYs (Disability-Adjusted Life Years)',Ireland,Percent,0.000011,2017,0.000011,0.00001
1,'DALYs (Disability-Adjusted Life Years)',Ireland,Rate,0.281986,2017,0.26967,0.278144
1,'DALYs (Disability-Adjusted Life Years)',Australia,Percent,0.00001,2019,0.00001,0.000009
1,'DALYs (Disability-Adjusted Life Years)',Australia,Rate,0.289747,2019,0.277308,0.282459
1,'DALYs (Disability-Adjusted Life Years)',Switzerland,Percent,0.000011,2017,0.000011,0.00001
1,'DALYs (Disability-Adjusted Life Years)',Switzerland,Rate,0.309773,2017,0.29802,0.299318
1,'DALYs (Disability-Adjusted Life Years)','Saint Vincent and the Grenadines',Number,0.337556,2018,0.326485,0.333133
1,'DALYs (Disability-Adjusted Life Years)','Saint Vincent and the Grenadines',Percent,0.000007,2018,0.000007,0.000007
1,'DALYs (Disability-Adjusted Life Years)','Saint Vincent and the Grenadines',Rate,0.291577,2018,0.282014,0.287757
1,'DALYs (Disability-Adjusted Life Years)','United Republic of Tanzania',Percent,0.000002,2018,0.000002,0.000002
1,'DALYs (Disability-Adjusted Life Years)','United Republic of Tanzania',Rate,0.12292,2018,0.132877,0.110894
1,'DALYs (Disability-Adjusted Life Years)',Netherlands,Percent,0.000013,2019,0.000013,0.000012
1,'DALYs (Disability-Adjusted Life Years)',Netherlands,Rate,0.415556,2019,0.397536,0.404627
1,'DALYs (Disability-Adjusted Life Years)','Taiwan (Province of China)',Percent,0.000012,2018,0.000012,0.000011
1,'DALYs (Disability-Adjusted Life Years)','Taiwan (Province of China)',Rate,0.370225,2018,0.350406,0.370662
1,'DALYs (Disability-Adjusted Life Years)',Suriname,Percent,0.000005,2017,0.000005,0.000005
1,'DALYs (Disability-Adjusted Life Years)',Suriname,Rate,0.205981,2017,0.20324,0.198155
1,'DALYs (Disability-Adjusted Life Years)','Brunei Darussalam',Number,0.842467,2018,0.822266,0.809782
1,'DALYs (Disability-Adjusted Life Years)','Brunei Darussalam',Percent,0.000008,2018,0.000008,0.000008
1,'DALYs (Disability-Adjusted Life Years)','Brunei Darussalam',Rate,0.192002,2018,0.187398,0.184553
1,'DALYs (Disability-Adjusted Life Years)',Libya,Percent,0.000005,2019,0.000005,0.000004
1,'DALYs (Disability-Adjusted Life Years)',Libya,Rate,0.165552,2019,0.173687,0.147389
1,'DALYs (Disability-Adjusted Life Years)',Switzerland,Percent,0.00001,2019,0.000011,0.000009
1,'DALYs (Disability-Adjusted Life Years)',Switzerland,Rate,0.30379,2019,0.292185,0.292098
1,'DALYs (Disability-Adjusted Life Years)',Mauritius,Percent,0.000005,2018,0.000005,0.000005
1,'DALYs (Disability-Adjusted Life Years)',Mauritius,Rate,0.204895,2018,0.195312,0.206176
1,'DALYs (Disability-Adjusted Life Years)',Namibia,Percent,0.000002,2018,0.000002,0.000002
1,'DALYs (Disability-Adjusted Life Years)',Namibia,Rate,0.145494,2018,0.151862,0.119957
1,'DALYs (Disability-Adjusted Life Years)','Micronesia (Federated States of)',Number,0.198471,2019,0.200804,0.187572
1,'DALYs (Disability-Adjusted Life Years)','Micronesia (Federated States of)',Percent,0.000004,2019,0.000004,0.000004
1,'DALYs (Disability-Adjusted Life Years)','Micronesia (Federated States of)',Rate,0.1911,2019,0.193346,0.180606
1,'DALYs (Disability-Adjusted Life Years)',Eritrea,Percent,0.000003,2017,0.000003,0.000002
1,'DALYs (Disability-Adjusted Life Years)',Eritrea,Rate,0.204977,2017,0.215528,0.189982
1,'DALYs (Disability-Adjusted Life Years)',Colombia,Percent,0.000006,2018,0.000006,0.000005
1,'DALYs (Disability-Adjusted Life Years)',Colombia,Rate,0.17484,2018,0.164341,0.176054
1,'DALYs (Disability-Adjusted Life Years)',Portugal,Percent,0.000012,2017,0.000012,0.000011
1,'DALYs (Disability-Adjusted Life Years)',Portugal,Rate,0.400591,2017,0.382152,0.394144
1,'DALYs (Disability-Adjusted Life Years)',Guinea,Percent,0.000001,2017,0.000001,0.000001
1,'DALYs (Disability-Adjusted Life Years)',Guinea,Rate,0.106619,2017,0.114719,0.095047
1,'DALYs (Disability-Adjusted Life Years)',Maldives,Number,0.376262,2018,0.373941,0.36406
1,'DALYs (Disability-Adjusted Life Years)',Maldives,Percent,0.000003,2018,0.000003,0.000003
1,'DALYs (Disability-Adjusted Life Years)',Maldives,Rate,0.079281,2018,0.078792,0.07671
1,'DALYs (Disability-Adjusted Life Years)',Iraq,Percent,0.000004,2018,0.000004,0.000004
1,'DALYs (Disability-Adjusted Life Years)',Iraq,Rate,0.164272,2018,0.166176,0.157188
1,'DALYs (Disability-Adjusted Life Years)','Republic of Korea',Percent,0.00001,2017,0.000011,0.000009
1,'DALYs (Disability-Adjusted Life Years)','Republic of Korea',Rate,0.262566,2017,0.259278,0.251622
1,'DALYs (Disability-Adjusted Life Years)',Kyrgyzstan,Percent,0.000004,2018,0.000004,0.000004
1,'DALYs (Disability-Adjusted Life Years)',Kyrgyzstan,Rate,0.124938,2018,0.11895,0.125446
1,'DALYs (Disability-Adjusted Life Years)',Monaco,Number,0.288844,2018,0.304851,0.26531
1,'DALYs (Disability-Adjusted Life Years)',Monaco,Percent,0.00002,2018,0.000021,0.000017
1,'DALYs (Disability-Adjusted Life Years)',Monaco,Rate,0.759713,2018,0.801816,0.697816
1,'DALYs (Disability-Adjusted Life Years)',Guatemala,Percent,0.000003,2017,0.000003,0.000003
1,'DALYs (Disability-Adjusted Life Years)',Guatemala,Rate,0.127818,2017,0.121862,0.128778
1,'DALYs (Disability-Adjusted Life Years)',Lithuania,Percent,0.00001,2019,0.00001,0.000009
1,'DALYs (Disability-Adjusted Life Years)',Lithuania,Rate,0.458165,2019,0.431207,0.461425
1,'DALYs (Disability-Adjusted Life Years)',Slovakia,Percent,0.000011,2018,0.000012,0.000011
1,'DALYs (Disability-Adjusted Life Years)',Slovakia,Rate,0.421579,2018,0.408459,0.420656
1,'DALYs (Disability-Adjusted Life Years)',Morocco,Percent,0.000003,2018,0.000004,0.000003
1,'DALYs (Disability-Adjusted Life Years)',Morocco,Rate,0.134386,2018,0.149091,0.11673
1,'DALYs (Disability-Adjusted Life Years)',Cameroon,Percent,0.000001,2019,0.000001,0.000001
1,'DALYs (Disability-Adjusted Life Years)',Cameroon,Rate,0.114579,2019,0.117883,0.105263
1,'DALYs (Disability-Adjusted Life Years)','Iran (Islamic Republic of)',Percent,0.000005,2017,0.000005,0.000004
1,'DALYs (Disability-Adjusted Life Years)','Iran (Islamic Republic of)',Rate,0.147465,2017,0.147905,0.143673
1,'DALYs (Disability-Adjusted Life Years)','Costa Rica',Percent,0.000007,2019,0.000007,0.000006
1,'DALYs (Disability-Adjusted Life Years)','Costa Rica',Rate,0.189679,2019,0.179527,0.19001
1,'DALYs (Disability-Adjusted Life Years)',Haiti,Percent,0.000002,2018,0.000002,0.000002
1,'DALYs (Disability-Adjusted Life Years)',Haiti,Rate,0.16274,2018,0.171485,0.146966
1,'DALYs (Disability-Adjusted Life Years)',Zambia,Percent,0.000002,2019,0.000002,0.000002
1,'DALYs (Disability-Adjusted Life Years)',Zambia,Rate,0.143207,2019,0.153572,0.129805
1,'DALYs (Disability-Adjusted Life Years)',Guinea-Bissau,Percent,0.000001,2017,0.000001,0.000001
1,'DALYs (Disability-Adjusted Life Years)',Guinea-Bissau,Rate,0.102085,2017,0.111646,0.088804
1,'DALYs (Disability-Adjusted Life Years)','Bosnia and Herzegovina',Percent,0.000011,2019,0.000011,0.00001
1,'DALYs (Disability-Adjusted Life Years)','Bosnia and Herzegovina',Rate,0.441342,2019,0.428528,0.432432
1,'DALYs (Disability-Adjusted Life Years)','North Macedonia',Percent,0.00001,2017,0.00001,0.00001
1,'DALYs (Disability-Adjusted Life Years)','North Macedonia',Rate,0.38974,2017,0.37479,0.382957
1,'DALYs (Disability-Adjusted Life Years)',Palestine,Percent,0.000004,2017,0.000004,0.000003
1,'DALYs (Disability-Adjusted Life Years)',Palestine,Rate,0.096036,2017,0.094084,0.092352
1,'DALYs (Disability-Adjusted Life Years)','Republic of Korea',Percent,0.00001,2019,0.000011,0.000009
1,'DALYs (Disability-Adjusted Life Years)','Republic of Korea',Rate,0.266462,2019,0.267017,0.253248
1,'DALYs (Disability-Adjusted Life Years)',Togo,Percent,0.000001,2018,0.000001,0.000001
1,'DALYs (Disability-Adjusted Life Years)',Togo,Rate,0.102745,2018,0.108916,0.092541
1,'DALYs (Disability-Adjusted Life Years)',Samoa,Number,0.203734,2018,0.223741,0.179151
1,'DALYs (Disability-Adjusted Life Years)',Samoa,Percent,0.000002,2018,0.000003,0.000002
1,'DALYs (Disability-Adjusted Life Years)',Samoa,Rate,0.098318,2018,0.107973,0.086455
1,'DALYs (Disability-Adjusted Life Years)',Luxembourg,Percent,0.000011,2018,0.000011,0.00001
1,'DALYs (Disability-Adjusted Life Years)',Luxembourg,Rate,0.286838,2018,0.274733,0.282001
1,'DALYs (Disability-Adjusted Life Years)',Pakistan,Percent,0.000003,2017,0.000003,0.000002
1,'DALYs (Disability-Adjusted Life Years)',Pakistan,Rate,0.148492,2017,0.15142,0.141298
1,'DALYs (Disability-Adjusted Life Years)',Djibouti,Percent,0.000003,2018,0.000003,0.000002
1,'DALYs (Disability-Adjusted Life Years)',Djibouti,Rate,0.162642,2018,0.172854,0.144533
1,'DALYs (Disability-Adjusted Life Years)','United Arab Emirates',Percent,0.000002,2018,0.000002,0.000002
1,'DALYs (Disability-Adjusted Life Years)','United Arab Emirates',Rate,0.048,2018,0.050301,0.045452
1,'DALYs (Disability-Adjusted Life Years)',Belarus,Percent,0.000008,2017,0.000007,0.000007
1,'DALYs (Disability-Adjusted Life Years)',Belarus,Rate,0.346338,2017,0.327236,0.350742
1,'DALYs (Disability-Adjusted Life Years)',France,Percent,0.000013,2019,0.000013,0.000012
1,'DALYs (Disability-Adjusted Life Years)',France,Rate,0.3905,2019,0.37338,0.380327
1,'DALYs (Disability-Adjusted Life Years)','Papua New Guinea',Percent,0.000002,2018,0.000002,0.000002
1,'DALYs (Disability-Adjusted Life Years)','Papua New Guinea',Rate,0.12063,2018,0.126599,0.107306
1,'DALYs (Disability-Adjusted Life Years)',Sudan,Percent,0.000002,2017,0.000002,0.000002
1,'DALYs (Disability-Adjusted Life Years)',Sudan,Rate,0.115907,2017,0.128586,0.097021
1,'DALYs (Disability-Adjusted Life Years)',Lithuania,Percent,0.00001,2017,0.000009,0.000009
1,'DALYs (Disability-Adjusted Life Years)',Lithuania,Rate,0.453582,2017,0.426779,0.458816
1,'DALYs (Disability-Adjusted Life Years)',Jamaica,Percent,0.000007,2019,0.000007,0.000007
1,'DALYs (Disability-Adjusted Life Years)',Jamaica,Rate,0.264459,2019,0.256042,0.261424
1,'DALYs (Disability-Adjusted Life Years)',Kazakhstan,Percent,0.000005,2019,0.000005,0.000005
1,'DALYs (Disability-Adjusted Life Years)',Kazakhstan,Rate,0.185849,2019,0.176822,0.186686
1,'DALYs (Disability-Adjusted Life Years)',Armenia,Percent,0.000009,2019,0.000008,0.000008
1,'DALYs (Disability-Adjusted Life Years)',Armenia,Rate,0.301728,2019,0.287291,0.301881
1,'DALYs (Disability-Adjusted Life Years)',Malaysia,Percent,0.000006,2019,0.000006,0.000005
1,'DALYs (Disability-Adjusted Life Years)',Malaysia,Rate,0.159091,2019,0.153183,0.157213
1,'DALYs (Disability-Adjusted Life Years)','North Macedonia',Percent,0.000011,2019,0.000011,0.00001
1,'DALYs (Disability-Adjusted Life Years)','North Macedonia',Rate,0.420934,2019,0.404121,0.412265
1,'DALYs (Disability-Adjusted Life Years)','Cabo Verde',Number,0.832757,2017,0.867767,0.764829
1,'DALYs (Disability-Adjusted Life Years)','Cabo Verde',Percent,0.000005,2017,0.000005,0.000004
1,'DALYs (Disability-Adjusted Life Years)','Cabo Verde',Rate,0.162713,2017,0.169554,0.149441
1,'DALYs (Disability-Adjusted Life Years)','Saint Kitts and Nevis',Number,0.112266,2017,0.108409,0.111394
1,'DALYs (Disability-Adjusted Life Years)','Saint Kitts and Nevis',Percent,0.000006,2017,0.000006,0.000006
1,'DALYs (Disability-Adjusted Life Years)','Saint Kitts and Nevis',Rate,0.231457,2017,0.223505,0.22966
1,'DALYs (Disability-Adjusted Life Years)','Republic of Moldova',Percent,0.000007,2018,0.000007,0.000007
1,'DALYs (Disability-Adjusted Life Years)','Republic of Moldova',Rate,0.320148,2018,0.305403,0.320555
1,'DALYs (Disability-Adjusted Life Years)',Afghanistan,Percent,0.000001,2017,0.000001,0
1,'DALYs (Disability-Adjusted Life Years)',Afghanistan,Rate,0.0703,2017,0.078208,0.054792
1,'DALYs (Disability-Adjusted Life Years)','Sao Tome and Principe',Number,0.273871,2018,0.29683,0.247522
1,'DALYs (Disability-Adjusted Life Years)','Sao Tome and Principe',Percent,0.000003,2018,0.000003,0.000003
1,'DALYs (Disability-Adjusted Life Years)','Sao Tome and Principe',Rate,0.131972,2018,0.143035,0.119275
1,'DALYs (Disability-Adjusted Life Years)',Andorra,Number,0.287532,2018,0.28574,0.276436
1,'DALYs (Disability-Adjusted Life Years)',Andorra,Percent,0.000013,2018,0.000014,0.000012
1,'DALYs (Disability-Adjusted Life Years)',Andorra,Rate,0.357806,2018,0.355577,0.343998
1,'DALYs (Disability-Adjusted Life Years)',Cuba,Percent,0.00001,2017,0.00001,0.000009
1,'DALYs (Disability-Adjusted Life Years)',Cuba,Rate,0.35314,2017,0.333997,0.355527
1,'DALYs (Disability-Adjusted Life Years)',Suriname,Percent,0.000005,2019,0.000005,0.000005
1,'DALYs (Disability-Adjusted Life Years)',Suriname,Rate,0.211301,2019,0.20635,0.20303
1,'DALYs (Disability-Adjusted Life Years)','Equatorial Guinea',Percent,0.000002,2018,0.000002,0.000001
1,'DALYs (Disability-Adjusted Life Years)','Equatorial Guinea',Rate,0.126026,2018,0.138908,0.101991
1,'DALYs (Disability-Adjusted Life Years)',Bulgaria,Percent,0.000009,2018,0.000009,0.000009
1,'DALYs (Disability-Adjusted Life Years)',Bulgaria,Rate,0.442433,2018,0.418738,0.446422
1,'DALYs (Disability-Adjusted Life Years)',Malaysia,Percent,0.000005,2017,0.000005,0.000005
1,'DALYs (Disability-Adjusted Life Years)',Malaysia,Rate,0.158957,2017,0.15474,0.15738
1,'DALYs (Disability-Adjusted Life Years)','Syrian Arab Republic',Percent,0.000002,2019,0.000002,0.000002
1,'DALYs (Disability-Adjusted Life Years)','Syrian Arab Republic',Rate,0.09786,2019,0.100076,0.089845
1,'DALYs (Disability-Adjusted Life Years)',Liberia,Percent,0.000001,2018,0.000001,0.000001
1,'DALYs (Disability-Adjusted Life Years)',Liberia,Rate,0.129407,2018,0.137832,0.110897
1,'DALYs (Disability-Adjusted Life Years)','United Kingdom',Percent,0.000011,2018,0.000012,0.00001
1,'DALYs (Disability-Adjusted Life Years)','United Kingdom',Rate,0.370709,2018,0.352535,0.364741
1,'DALYs (Disability-Adjusted Life Years)',Seychelles,Number,0.266871,2017,0.26208,0.259695
1,'DALYs (Disability-Adjusted Life Years)',Seychelles,Percent,0.000008,2017,0.000008,0.000008
1,'DALYs (Disability-Adjusted Life Years)',Seychelles,Rate,0.263127,2017,0.258404,0.256052
1,'DALYs (Disability-Adjusted Life Years)',Belarus,Percent,0.000008,2019,0.000008,0.000008
1,'DALYs (Disability-Adjusted Life Years)',Belarus,Rate,0.36232,2019,0.343002,0.365508
1,'DALYs (Disability-Adjusted Life Years)',Nigeria,Percent,0.000001,2017,0.000001,0
1,'DALYs (Disability-Adjusted Life Years)',Nigeria,Rate,0.102916,2017,0.109948,0.090297
1,'DALYs (Disability-Adjusted Life Years)','Syrian Arab Republic',Percent,0.000001,2017,0.000001,0.000001
1,'DALYs (Disability-Adjusted Life Years)','Syrian Arab Republic',Rate,0.089564,2017,0.090351,0.08353
1,'DALYs (Disability-Adjusted Life Years)',Argentina,Percent,0.000009,2017,0.000009,0.000008
1,'DALYs (Disability-Adjusted Life Years)',Argentina,Rate,0.277821,2017,0.261657,0.281803
1,'DALYs (Disability-Adjusted Life Years)',Nicaragua,Percent,0.000004,2017,0.000004,0.000004
1,'DALYs (Disability-Adjusted Life Years)',Nicaragua,Rate,0.126634,2017,0.127401,0.124671
1,'DALYs (Disability-Adjusted Life Years)','Puerto Rico',Percent,0.000007,2018,0.000007,0.000006
1,'DALYs (Disability-Adjusted Life Years)','Puerto Rico',Rate,0.254409,2018,0.242021,0.252921
1,'DALYs (Disability-Adjusted Life Years)',Croatia,Percent,0.000012,2017,0.000012,0.000012
1,'DALYs (Disability-Adjusted Life Years)',Croatia,Rate,0.49643,2017,0.469042,0.50042
1,'DALYs (Disability-Adjusted Life Years)',Jamaica,Percent,0.000007,2017,0.000007,0.000007
1,'DALYs (Disability-Adjusted Life Years)',Jamaica,Rate,0.255207,2017,0.243674,0.255555
1,'DALYs (Disability-Adjusted Life Years)',Chile,Percent,0.000009,2018,0.000009,0.000008
1,'DALYs (Disability-Adjusted Life Years)',Chile,Rate,0.243542,2018,0.229954,0.243268
1,'DALYs (Disability-Adjusted Life Years)',Belize,Number,0.523648,2018,0.501195,0.52239
1,'DALYs (Disability-Adjusted Life Years)',Belize,Percent,0.000004,2018,0.000004,0.000004
1,'DALYs (Disability-Adjusted Life Years)',Belize,Rate,0.134816,2018,0.129035,0.134492
1,'DALYs (Disability-Adjusted Life Years)',Algeria,Percent,0.000003,2019,0.000003,0.000003
1,'DALYs (Disability-Adjusted Life Years)',Algeria,Rate,0.110461,2019,0.122092,0.094768
1,'DALYs (Disability-Adjusted Life Years)',Pakistan,Percent,0.000003,2019,0.000003,0.000003
1,'DALYs (Disability-Adjusted Life Years)',Pakistan,Rate,0.15219,2019,0.154748,0.143612
1,'DALYs (Disability-Adjusted Life Years)',Montenegro,Percent,0.000011,2018,0.000011,0.00001
1,'DALYs (Disability-Adjusted Life Years)',Montenegro,Rate,0.396211,2018,0.392557,0.378034
1,'DALYs (Disability-Adjusted Life Years)',Benin,Percent,0.000001,2017,0,0
1,'DALYs (Disability-Adjusted Life Years)',Benin,Rate,0.087343,2017,0.091648,0.075829
1,'DALYs (Disability-Adjusted Life Years)',Kazakhstan,Percent,0.000005,2017,0.000005,0.000005
1,'DALYs (Disability-Adjusted Life Years)',Kazakhstan,Rate,0.190742,2017,0.18239,0.188599
1,'DALYs (Disability-Adjusted Life Years)',Timor-Leste,Percent,0.000002,2018,0.000002,0.000002
1,'DALYs (Disability-Adjusted Life Years)',Timor-Leste,Rate,0.116466,2018,0.123191,0.104686
1,'DALYs (Disability-Adjusted Life Years)',Bermuda,Number,0.225403,2018,0.216836,0.219478
1,'DALYs (Disability-Adjusted Life Years)',Bermuda,Percent,0.000011,2018,0.000011,0.00001
1,'DALYs (Disability-Adjusted Life Years)',Bermuda,Rate,0.347847,2018,0.334627,0.338704
1,'DALYs (Disability-Adjusted Life Years)',Angola,Percent,0.000001,2017,0.000001,0.000001
1,'DALYs (Disability-Adjusted Life Years)',Angola,Rate,0.114675,2017,0.119802,0.102262
1,'DALYs (Disability-Adjusted Life Years)','Cook Islands',Number,0.053678,2017,0.055002,0.049959
1,'DALYs (Disability-Adjusted Life Years)','Cook Islands',Percent,0.000008,2017,0.000008,0.000007
1,'DALYs (Disability-Adjusted Life Years)','Cook Islands',Rate,0.311031,2017,0.318701,0.289479
1,'DALYs (Disability-Adjusted Life Years)','United States Virgin Islands',Number,0.289603,2018,0.283876,0.283047
1,'DALYs (Disability-Adjusted Life Years)','United States Virgin Islands',Percent,0.000008,2018,0.000008,0.000007
1,'DALYs (Disability-Adjusted Life Years)','United States Virgin Islands',Rate,0.309308,2018,0.303192,0.302306
1,'DALYs (Disability-Adjusted Life Years)',Afghanistan,Percent,0.000001,2019,0.000001,0
1,'DALYs (Disability-Adjusted Life Years)',Afghanistan,Rate,0.072266,2019,0.078743,0.058551
1,'DALYs (Disability-Adjusted Life Years)',Jordan,Percent,0.000005,2019,0.000005,0.000004
1,'DALYs (Disability-Adjusted Life Years)',Jordan,Rate,0.116281,2019,0.114755,0.11253
1,'DALYs (Disability-Adjusted Life Years)',Cameroon,Percent,0.000001,2018,0.000001,0.000001
1,'DALYs (Disability-Adjusted Life Years)',Cameroon,Rate,0.112662,2018,0.115968,0.103974
1,'DALYs (Disability-Adjusted Life Years)',Finland,Percent,0.00001,2018,0.00001,0.000009
1,'DALYs (Disability-Adjusted Life Years)',Finland,Rate,0.344581,2018,0.33068,0.335935
1,'DALYs (Disability-Adjusted Life Years)',Japan,Percent,0.000012,2019,0.000013,0.000011
1,'DALYs (Disability-Adjusted Life Years)',Japan,Rate,0.413105,2019,0.403407,0.388066
1,'DALYs (Disability-Adjusted Life Years)',Kuwait,Percent,0.000003,2018,0.000003,0.000003
1,'DALYs (Disability-Adjusted Life Years)',Kuwait,Rate,0.070845,2018,0.067923,0.070646
1,'DALYs (Disability-Adjusted Life Years)','United States Virgin Islands',Number,0.288543,2019,0.283652,0.282468
1,'DALYs (Disability-Adjusted Life Years)','United States Virgin Islands',Percent,0.000008,2019,0.000008,0.000007
1,'DALYs (Disability-Adjusted Life Years)','United States Virgin Islands',Rate,0.315101,2019,0.30976,0.308468
1,'DALYs (Disability-Adjusted Life Years)',Mauritius,Percent,0.000005,2019,0.000005,0.000005
1,'DALYs (Disability-Adjusted Life Years)',Mauritius,Rate,0.205936,2019,0.196065,0.207454
1,'DALYs (Disability-Adjusted Life Years)',Barbados,Percent,0.00001,2019,0.00001,0.000009
1,'DALYs (Disability-Adjusted Life Years)',Barbados,Rate,0.369808,2019,0.355933,0.367591
1,'DALYs (Disability-Adjusted Life Years)','South Sudan',Percent,0.000002,2018,0.000002,0.000002
1,'DALYs (Disability-Adjusted Life Years)','South Sudan',Rate,0.209749,2018,0.220582,0.188369
1,'DALYs (Disability-Adjusted Life Years)',Niue,Number,0.004091,2018,0.004222,0.003808
1,'DALYs (Disability-Adjusted Life Years)',Niue,Percent,0.000005,2018,0.000006,0.000005
1,'DALYs (Disability-Adjusted Life Years)',Niue,Rate,0.249114,2018,0.257155,0.231893
1,'DALYs (Disability-Adjusted Life Years)',Ethiopia,Percent,0.000003,2019,0.000004,0.000003
1,'DALYs (Disability-Adjusted Life Years)',Ethiopia,Rate,0.210109,2019,0.225254,0.193657
1,'DALYs (Disability-Adjusted Life Years)',Mexico,Percent,0.000004,2017,0.000004,0.000004
1,'DALYs (Disability-Adjusted Life Years)',Mexico,Rate,0.144539,2017,0.136315,0.146966
1,'DALYs (Disability-Adjusted Life Years)',Philippines,Percent,0.000004,2018,0.000004,0.000004
1,'DALYs (Disability-Adjusted Life Years)',Philippines,Rate,0.138531,2018,0.134696,0.137475
1,'DALYs (Disability-Adjusted Life Years)',Algeria,Percent,0.000003,2017,0.000003,0.000002
1,'DALYs (Disability-Adjusted Life Years)',Algeria,Rate,0.104724,2017,0.114652,0.091592
1,'DALYs (Disability-Adjusted Life Years)',Guatemala,Percent,0.000003,2019,0.000003,0.000003
1,'DALYs (Disability-Adjusted Life Years)',Guatemala,Rate,0.124176,2019,0.117926,0.125471
1,'DALYs (Disability-Adjusted Life Years)',Indonesia,Percent,0.000004,2017,0.000004,0.000004
1,'DALYs (Disability-Adjusted Life Years)',Indonesia,Rate,0.162752,2017,0.167782,0.154717
1,'DALYs (Disability-Adjusted Life Years)',Fiji,Percent,0.000004,2017,0.000004,0.000004
1,'DALYs (Disability-Adjusted Life Years)',Fiji,Rate,0.190724,2017,0.191473,0.182759
1,'DALYs (Disability-Adjusted Life Years)',Mali,Percent,0.000001,2017,0.000001,0.000001
1,'DALYs (Disability-Adjusted Life Years)',Mali,Rate,0.131907,2017,0.135521,0.1214
1,'DALYs (Disability-Adjusted Life Years)',Indonesia,Percent,0.000004,2019,0.000005,0.000004
1,'DALYs (Disability-Adjusted Life Years)',Indonesia,Rate,0.171482,2019,0.177706,0.16157
1,'DALYs (Disability-Adjusted Life Years)',Ethiopia,Percent,0.000003,2018,0.000003,0.000003
1,'DALYs (Disability-Adjusted Life Years)',Ethiopia,Rate,0.204451,2018,0.216012,0.188832
1,'DALYs (Disability-Adjusted Life Years)',Mongolia,Percent,0.000008,2019,0.000008,0.000008
1,'DALYs (Disability-Adjusted Life Years)',Mongolia,Rate,0.26616,2019,0.26017,0.260715
1,'DALYs (Disability-Adjusted Life Years)','Russian Federation',Percent,0.000007,2019,0.000007,0.000007
1,'DALYs (Disability-Adjusted Life Years)','Russian Federation',Rate,0.358624,2019,0.336956,0.363169
1,'DALYs (Disability-Adjusted Life Years)',Zambia,Percent,0.000002,2018,0.000002,0.000002
1,'DALYs (Disability-Adjusted Life Years)',Zambia,Rate,0.142172,2018,0.151721,0.129052
1,'DALYs (Disability-Adjusted Life Years)','Equatorial Guinea',Percent,0.000002,2019,0.000002,0.000001
1,'DALYs (Disability-Adjusted Life Years)','Equatorial Guinea',Rate,0.12706,2019,0.141969,0.099764
1,'DALYs (Disability-Adjusted Life Years)',Norway,Percent,0.000011,2018,0.000011,0.00001
1,'DALYs (Disability-Adjusted Life Years)',Norway,Rate,0.315794,2018,0.302934,0.308474
1,'DALYs (Disability-Adjusted Life Years)','Sao Tome and Principe',Number,0.284242,2019,0.312245,0.254262
1,'DALYs (Disability-Adjusted Life Years)','Sao Tome and Principe',Percent,0.000003,2019,0.000003,0.000003
1,'DALYs (Disability-Adjusted Life Years)','Sao Tome and Principe',Rate,0.134849,2019,0.148134,0.120626
1,'DALYs (Disability-Adjusted Life Years)','Solomon Islands',Percent,0.000004,2017,0.000004,0.000004
1,'DALYs (Disability-Adjusted Life Years)','Solomon Islands',Rate,0.176084,2017,0.183206,0.160416
1,'DALYs (Disability-Adjusted Life Years)',Tonga,Number,0.20453,2018,0.214104,0.187233
1,'DALYs (Disability-Adjusted Life Years)',Tonga,Percent,0.000006,2018,0.000006,0.000005
1,'DALYs (Disability-Adjusted Life Years)',Tonga,Rate,0.196781,2018,0.205993,0.18014
1,'DALYs (Disability-Adjusted Life Years)',Italy,Percent,0.000012,2017,0.000013,0.000011
1,'DALYs (Disability-Adjusted Life Years)',Italy,Rate,0.41023,2017,0.395566,0.395342
1,'DALYs (Disability-Adjusted Life Years)',Ireland,Percent,0.000011,2019,0.000011,0.00001
1,'DALYs (Disability-Adjusted Life Years)',Ireland,Rate,0.281052,2019,0.268387,0.274783
1,'DALYs (Disability-Adjusted Life Years)','Viet Nam',Percent,0.000007,2019,0.000007,0.000006
1,'DALYs (Disability-Adjusted Life Years)','Viet Nam',Rate,0.211911,2019,0.215101,0.199202
1,'DALYs (Disability-Adjusted Life Years)',Botswana,Percent,0.000002,2019,0.000003,0.000002
1,'DALYs (Disability-Adjusted Life Years)',Botswana,Rate,0.12742,2019,0.144558,0.105688
1,'DALYs (Disability-Adjusted Life Years)','San Marino',Number,0.096327,2018,0.097848,0.089176
1,'DALYs (Disability-Adjusted Life Years)','San Marino',Percent,0.00001,2018,0.000011,0.000009
1,'DALYs (Disability-Adjusted Life Years)','San Marino',Rate,0.278428,2018,0.282825,0.257757
1,'DALYs (Disability-Adjusted Life Years)',Poland,Percent,0.000012,2017,0.000012,0.000012
1,'DALYs (Disability-Adjusted Life Years)',Poland,Rate,0.459877,2017,0.433482,0.46173
1,'DALYs (Disability-Adjusted Life Years)','Russian Federation',Percent,0.000007,2017,0.000007,0.000007
1,'DALYs (Disability-Adjusted Life Years)','Russian Federation',Rate,0.363276,2017,0.341643,0.368587
1,'DALYs (Disability-Adjusted Life Years)','Central African Republic',Percent,0,2019,0,0
1,'DALYs (Disability-Adjusted Life Years)','Central African Republic',Rate,0.107145,2019,0.11905,0.086554
1,'DALYs (Disability-Adjusted Life Years)',Sweden,Percent,0.000011,2017,0.000011,0.00001
1,'DALYs (Disability-Adjusted Life Years)',Sweden,Rate,0.333231,2017,0.319085,0.323821
1,'DALYs (Disability-Adjusted Life Years)',Latvia,Percent,0.00001,2017,0.000009,0.000009
1,'DALYs (Disability-Adjusted Life Years)',Latvia,Rate,0.447983,2017,0.422015,0.452596
1,'DALYs (Disability-Adjusted Life Years)',Kenya,Percent,0.000003,2018,0.000003,0.000003
1,'DALYs (Disability-Adjusted Life Years)',Kenya,Rate,0.143055,2018,0.148703,0.132476
1,'DALYs (Disability-Adjusted Life Years)','Trinidad and Tobago',Percent,0.000006,2018,0.000006,0.000006
1,'DALYs (Disability-Adjusted Life Years)','Trinidad and Tobago',Rate,0.258535,2018,0.247388,0.257047
1,'DALYs (Disability-Adjusted Life Years)',Oman,Percent,0.000002,2018,0.000002,0.000002
1,'DALYs (Disability-Adjusted Life Years)',Oman,Rate,0.06394,2018,0.064876,0.059969
1,'DALYs (Disability-Adjusted Life Years)',Lesotho,Percent,0.000001,2017,0.000001,0.000001
1,'DALYs (Disability-Adjusted Life Years)',Lesotho,Rate,0.145836,2017,0.168111,0.124348
1,'DALYs (Disability-Adjusted Life Years)',Palestine,Percent,0.000004,2019,0.000004,0.000004
1,'DALYs (Disability-Adjusted Life Years)',Palestine,Rate,0.096526,2019,0.09393,0.09351
1,'DALYs (Disability-Adjusted Life Years)',Tajikistan,Percent,0.000003,2018,0.000003,0.000002
1,'DALYs (Disability-Adjusted Life Years)',Tajikistan,Rate,0.094093,2018,0.101902,0.089136
1,'DALYs (Disability-Adjusted Life Years)',Madagascar,Percent,0.000002,2017,0.000002,0.000002
1,'DALYs (Disability-Adjusted Life Years)',Madagascar,Rate,0.156823,2017,0.161715,0.146467
1,'DALYs (Disability-Adjusted Life Years)',Burundi,Percent,0.000001,2017,0.000001,0.000001
1,'DALYs (Disability-Adjusted Life Years)',Burundi,Rate,0.140013,2017,0.145736,0.128419
1,'DALYs (Disability-Adjusted Life Years)','Sierra Leone',Percent,0.000001,2018,0.000001,0.000001
1,'DALYs (Disability-Adjusted Life Years)','Sierra Leone',Rate,0.117272,2018,0.122982,0.107997
1,'DALYs (Disability-Adjusted Life Years)',Tokelau,Number,0.002381,2017,0.00242,0.002222
1,'DALYs (Disability-Adjusted Life Years)',Tokelau,Percent,0.000004,2017,0.000004,0.000004
1,'DALYs (Disability-Adjusted Life Years)',Tokelau,Rate,0.152746,2017,0.155273,0.142536
1,'DALYs (Disability-Adjusted Life Years)',Chad,Percent,0,2019,0,0
1,'DALYs (Disability-Adjusted Life Years)',Chad,Rate,0.095234,2019,0.104058,0.083805
1,'DALYs (Disability-Adjusted Life Years)',Azerbaijan,Percent,0.000006,2018,0.000006,0.000005
1,'DALYs (Disability-Adjusted Life Years)',Azerbaijan,Rate,0.196214,2018,0.203845,0.184125
1,'DALYs (Disability-Adjusted Life Years)',Argentina,Percent,0.000009,2019,0.000009,0.000008
1,'DALYs (Disability-Adjusted Life Years)',Argentina,Rate,0.270278,2019,0.254459,0.27359
1,'DALYs (Disability-Adjusted Life Years)','El Salvador',Percent,0.000005,2018,0.000005,0.000004
1,'DALYs (Disability-Adjusted Life Years)','El Salvador',Rate,0.189123,2018,0.187391,0.186032
1,'DALYs (Disability-Adjusted Life Years)',Jordan,Percent,0.000005,2017,0.000005,0.000004
1,'DALYs (Disability-Adjusted Life Years)',Jordan,Rate,0.114477,2017,0.112151,0.11109
1,'DALYs (Disability-Adjusted Life Years)',Cambodia,Percent,0.000003,2018,0.000003,0.000003
1,'DALYs (Disability-Adjusted Life Years)',Cambodia,Rate,0.117545,2018,0.122337,0.10889
1,'DALYs (Disability-Adjusted Life Years)',Rwanda,Percent,0.000003,2018,0.000003,0.000003
1,'DALYs (Disability-Adjusted Life Years)',Rwanda,Rate,0.173268,2018,0.183324,0.161463
1,'DALYs (Disability-Adjusted Life Years)',Myanmar,Percent,0.000003,2017,0.000003,0.000002
1,'DALYs (Disability-Adjusted Life Years)',Myanmar,Rate,0.1658,2017,0.174203,0.151609
1,'DALYs (Disability-Adjusted Life Years)',Portugal,Percent,0.000012,2019,0.000012,0.000011
1,'DALYs (Disability-Adjusted Life Years)',Portugal,Rate,0.40919,2019,0.392266,0.398076
1,'DALYs (Disability-Adjusted Life Years)',Egypt,Percent,0.000003,2019,0.000003,0.000003
1,'DALYs (Disability-Adjusted Life Years)',Egypt,Rate,0.121536,2019,0.122064,0.114589
1,'DALYs (Disability-Adjusted Life Years)',Nicaragua,Percent,0.000004,2019,0.000004,0.000004
1,'DALYs (Disability-Adjusted Life Years)',Nicaragua,Rate,0.137711,2019,0.138797,0.134115
1,'DALYs (Disability-Adjusted Life Years)',Mauritania,Percent,0.000002,2018,0.000002,0.000002
1,'DALYs (Disability-Adjusted Life Years)',Mauritania,Rate,0.11784,2018,0.127338,0.101392
1,'DALYs (Disability-Adjusted Life Years)',Eswatini,Percent,0.000002,2018,0.000003,0.000001
1,'DALYs (Disability-Adjusted Life Years)',Eswatini,Rate,0.194025,2018,0.24151,0.148973
1,'DALYs (Disability-Adjusted Life Years)',Denmark,Percent,0.000013,2020,0.000013,0.000012
1,'DALYs (Disability-Adjusted Life Years)',Denmark,Rate,0.412092,2020,0.39263,0.403793
1,'DALYs (Disability-Adjusted Life Years)',Ukraine,Percent,0.000007,2018,0.000006,0.000006
1,'DALYs (Disability-Adjusted Life Years)',Ukraine,Rate,0.335619,2018,0.317539,0.340919
1,'DALYs (Disability-Adjusted Life Years)','Saudi Arabia',Percent,0.000003,2019,0.000003,0.000002
1,'DALYs (Disability-Adjusted Life Years)','Saudi Arabia',Rate,0.079813,2019,0.089394,0.074488
1,'DALYs (Disability-Adjusted Life Years)',Latvia,Percent,0.00001,2019,0.00001,0.000009
1,'DALYs (Disability-Adjusted Life Years)',Latvia,Rate,0.447199,2019,0.422831,0.449349
1,'DALYs (Disability-Adjusted Life Years)',Bangladesh,Percent,0.000004,2018,0.000004,0.000004
1,'DALYs (Disability-Adjusted Life Years)',Bangladesh,Rate,0.155457,2018,0.159672,0.147225
1,'DALYs (Disability-Adjusted Life Years)',Cuba,Percent,0.00001,2019,0.00001,0.000009
1,'DALYs (Disability-Adjusted Life Years)',Cuba,Rate,0.3603,2019,0.340468,0.363261
1,'DALYs (Disability-Adjusted Life Years)',Slovenia,Percent,0.000011,2020,0.000011,0.00001
1,'DALYs (Disability-Adjusted Life Years)',Slovenia,Rate,0.410762,2020,0.389405,0.408528
1,'DALYs (Disability-Adjusted Life Years)','Venezuela (Bolivarian Republic of)',Percent,0.000005,2017,0.000005,0.000005
1,'DALYs (Disability-Adjusted Life Years)','Venezuela (Bolivarian Republic of)',Rate,0.190463,2017,0.179277,0.193005
1,'DALYs (Disability-Adjusted Life Years)',Bahamas,Percent,0.000007,2017,0.000007,0.000007
1,'DALYs (Disability-Adjusted Life Years)',Bahamas,Rate,0.27957,2017,0.267043,0.279643
1,'DALYs (Disability-Adjusted Life Years)',Croatia,Percent,0.000012,2019,0.000012,0.000011
1,'DALYs (Disability-Adjusted Life Years)',Croatia,Rate,0.490708,2019,0.462604,0.492314
1,'DALYs (Disability-Adjusted Life Years)','Côte dIvoire',Percent,0.000001,2017,0.000001,0.000001
1,'DALYs (Disability-Adjusted Life Years)','Côte dIvoire',Rate,0.112963,2017,0.119913,0.10059
1,'DALYs (Disability-Adjusted Life Years)','Saudi Arabia',Percent,0.000003,2017,0.000003,0.000002
1,'DALYs (Disability-Adjusted Life Years)','Saudi Arabia',Rate,0.079261,2017,0.086625,0.073774
1,'DALYs (Disability-Adjusted Life Years)',Mozambique,Percent,0,2020,0,0
1,'DALYs (Disability-Adjusted Life Years)',Mozambique,Rate,0.07778,2020,0.083268,0.069082
1,'DALYs (Disability-Adjusted Life Years)',Angola,Percent,0.000001,2019,0.000001,0.000001
1,'DALYs (Disability-Adjusted Life Years)',Angola,Rate,0.115719,2019,0.123888,0.104209
1,'DALYs (Disability-Adjusted Life Years)',Thailand,Percent,0.000009,2018,0.000009,0.000008
1,'DALYs (Disability-Adjusted Life Years)',Thailand,Rate,0.312165,2018,0.319785,0.303948
1,'DALYs (Disability-Adjusted Life Years)',Myanmar,Percent,0.000003,2019,0.000003,0.000003
1,'DALYs (Disability-Adjusted Life Years)',Myanmar,Rate,0.1754,2019,0.184072,0.160542
1,'DALYs (Disability-Adjusted Life Years)',Monaco,Number,0.292639,2019,0.311102,0.261313
1,'DALYs (Disability-Adjusted Life Years)',Monaco,Percent,0.00002,2019,0.000021,0.000017
1,'DALYs (Disability-Adjusted Life Years)',Monaco,Rate,0.763951,2019,0.812148,0.682172
1,'DALYs (Disability-Adjusted Life Years)',Turkmenistan,Percent,0.000003,2018,0.000003,0.000003
1,'DALYs (Disability-Adjusted Life Years)',Turkmenistan,Rate,0.153165,2018,0.147611,0.152616
1,'DALYs (Disability-Adjusted Life Years)',Japan,Percent,0.000012,2020,0.000013,0.000011
1,'DALYs (Disability-Adjusted Life Years)',Japan,Rate,0.410121,2020,0.401947,0.383854
1,'DALYs (Disability-Adjusted Life Years)',Mongolia,Percent,0.000008,2017,0.000008,0.000008
1,'DALYs (Disability-Adjusted Life Years)',Mongolia,Rate,0.283422,2017,0.279546,0.277596
1,'DALYs (Disability-Adjusted Life Years)','Central African Republic',Percent,0,2018,0,0
1,'DALYs (Disability-Adjusted Life Years)','Central African Republic',Rate,0.10479,2018,0.118011,0.084817
1,'DALYs (Disability-Adjusted Life Years)',Kenya,Percent,0.000003,2019,0.000003,0.000003
1,'DALYs (Disability-Adjusted Life Years)',Kenya,Rate,0.144834,2019,0.151959,0.134518
1,'DALYs (Disability-Adjusted Life Years)',Guinea-Bissau,Percent,0.000001,2020,0.000001,0.000001
1,'DALYs (Disability-Adjusted Life Years)',Guinea-Bissau,Rate,0.108541,2020,0.116885,0.09476
1,'DALYs (Disability-Adjusted Life Years)',Palestine,Percent,0.000004,2020,0.000004,0.000003
1,'DALYs (Disability-Adjusted Life Years)',Palestine,Rate,0.093823,2020,0.091224,0.091454
1,'DALYs (Disability-Adjusted Life Years)',Georgia,Percent,0.00001,2017,0.000009,0.000009
1,'DALYs (Disability-Adjusted Life Years)',Georgia,Rate,0.443905,2017,0.424406,0.445448
1,'DALYs (Disability-Adjusted Life Years)',Poland,Percent,0.000012,2019,0.000012,0.000011
1,'DALYs (Disability-Adjusted Life Years)',Poland,Rate,0.458554,2019,0.433015,0.459528
1,'DALYs (Disability-Adjusted Life Years)','United States of America',Percent,0.000007,2020,0.000007,0.000007
1,'DALYs (Disability-Adjusted Life Years)','United States of America',Rate,0.311317,2020,0.296615,0.308787
1,'DALYs (Disability-Adjusted Life Years)',Bhutan,Percent,0.000003,2017,0.000004,0.000003
1,'DALYs (Disability-Adjusted Life Years)',Bhutan,Rate,0.138355,2017,0.14569,0.125272
1,'DALYs (Disability-Adjusted Life Years)',Egypt,Percent,0.000003,2017,0.000003,0.000003
1,'DALYs (Disability-Adjusted Life Years)',Egypt,Rate,0.124591,2017,0.124682,0.115622
1,'DALYs (Disability-Adjusted Life Years)',Türkiye,Percent,0.000007,2019,0.000008,0.000007
1,'DALYs (Disability-Adjusted Life Years)',Türkiye,Rate,0.220861,2019,0.216116,0.20686
1,'DALYs (Disability-Adjusted Life Years)','Solomon Islands',Percent,0.000004,2019,0.000004,0.000004
1,'DALYs (Disability-Adjusted Life Years)','Solomon Islands',Rate,0.183818,2019,0.192184,0.17011
1,'DALYs (Disability-Adjusted Life Years)',Dominica,Number,0.214589,2019,0.213868,0.205841
1,'DALYs (Disability-Adjusted Life Years)',Dominica,Percent,0.000008,2019,0.000009,0.000008
1,'DALYs (Disability-Adjusted Life Years)',Dominica,Rate,0.306755,2019,0.305724,0.294249
1,'DALYs (Disability-Adjusted Life Years)',Greenland,Number,0.268768,2018,0.264846,0.261295
1,'DALYs (Disability-Adjusted Life Years)',Greenland,Percent,0.000011,2018,0.000011,0.00001
1,'DALYs (Disability-Adjusted Life Years)',Greenland,Rate,0.480998,2018,0.47398,0.467624
1,'DALYs (Disability-Adjusted Life Years)','Viet Nam',Percent,0.000007,2020,0.000007,0.000006
1,'DALYs (Disability-Adjusted Life Years)','Viet Nam',Rate,0.217059,2020,0.221832,0.204374
1,'DALYs (Disability-Adjusted Life Years)',Uruguay,Percent,0.000012,2017,0.000012,0.000011
1,'DALYs (Disability-Adjusted Life Years)',Uruguay,Rate,0.412832,2017,0.390297,0.415365
1,'DALYs (Disability-Adjusted Life Years)',Congo,Percent,0.000001,2017,0.000001,0.000001
1,'DALYs (Disability-Adjusted Life Years)',Congo,Rate,0.114223,2017,0.121681,0.101524
1,'DALYs (Disability-Adjusted Life Years)',Türkiye,Percent,0.000007,2017,0.000007,0.000007
1,'DALYs (Disability-Adjusted Life Years)',Türkiye,Rate,0.21969,2017,0.212899,0.205619
1,'DALYs (Disability-Adjusted Life Years)',Afghanistan,Percent,0.000001,2020,0.000001,0
1,'DALYs (Disability-Adjusted Life Years)',Afghanistan,Rate,0.075393,2020,0.08188,0.061509
1,'DALYs (Disability-Adjusted Life Years)',Uzbekistan,Percent,0.000003,2017,0.000003,0.000003
1,'DALYs (Disability-Adjusted Life Years)',Uzbekistan,Rate,0.133986,2017,0.126387,0.135647
1,'DALYs (Disability-Adjusted Life Years)','Bosnia and Herzegovina',Percent,0.00001,2020,0.00001,0.000009
1,'DALYs (Disability-Adjusted Life Years)','Bosnia and Herzegovina',Rate,0.438524,2020,0.425745,0.432781
1,'DALYs (Disability-Adjusted Life Years)','Saint Lucia',Number,0.413419,2018,0.400677,0.407988
1,'DALYs (Disability-Adjusted Life Years)','Saint Lucia',Percent,0.000007,2018,0.000007,0.000006
1,'DALYs (Disability-Adjusted Life Years)','Saint Lucia',Rate,0.234455,2018,0.227228,0.231375
1,'DALYs (Disability-Adjusted Life Years)',Austria,Percent,0.000011,2017,0.000011,0.00001
1,'DALYs (Disability-Adjusted Life Years)',Austria,Rate,0.356162,2017,0.338324,0.350243
1,'DALYs (Disability-Adjusted Life Years)',Barbados,Percent,0.00001,2020,0.00001,0.000009
1,'DALYs (Disability-Adjusted Life Years)',Barbados,Rate,0.385161,2020,0.369979,0.382316
1,'DALYs (Disability-Adjusted Life Years)',Armenia,Percent,0.000006,2020,0.000005,0.000005
1,'DALYs (Disability-Adjusted Life Years)',Armenia,Rate,0.292428,2020,0.276579,0.295046
1,'DALYs (Disability-Adjusted Life Years)',Nauru,Number,0.027578,2017,0.030599,0.024457
1,'DALYs (Disability-Adjusted Life Years)',Nauru,Percent,0.000004,2017,0.000005,0.000004
1,'DALYs (Disability-Adjusted Life Years)',Nauru,Rate,0.2453,2017,0.272173,0.217543
1,'DALYs (Disability-Adjusted Life Years)',Romania,Percent,0.00001,2018,0.00001,0.00001
1,'DALYs (Disability-Adjusted Life Years)',Romania,Rate,0.441515,2018,0.415932,0.449567
1,'DALYs (Disability-Adjusted Life Years)',Dominica,Number,0.209246,2017,0.208156,0.201168
1,'DALYs (Disability-Adjusted Life Years)',Dominica,Percent,0.000007,2017,0.000007,0.000007
1,'DALYs (Disability-Adjusted Life Years)',Dominica,Rate,0.298189,2017,0.296636,0.286677
1,'DALYs (Disability-Adjusted Life Years)',Guam,Number,0.363393,2017,0.350672,0.361228
1,'DALYs (Disability-Adjusted Life Years)',Guam,Percent,0.000007,2017,0.000007,0.000006
1,'DALYs (Disability-Adjusted Life Years)',Guam,Rate,0.22445,2017,0.216593,0.223113
1,'DALYs (Disability-Adjusted Life Years)','Dominican Republic',Percent,0.000004,2018,0.000004,0.000004
1,'DALYs (Disability-Adjusted Life Years)','Dominican Republic',Rate,0.159889,2018,0.157047,0.149854
1,'DALYs (Disability-Adjusted Life Years)','Micronesia (Federated States of)',Number,0.200963,2020,0.204564,0.188037
1,'DALYs (Disability-Adjusted Life Years)','Micronesia (Federated States of)',Percent,0.000004,2020,0.000004,0.000004
1,'DALYs (Disability-Adjusted Life Years)','Micronesia (Federated States of)',Rate,0.193683,2020,0.197153,0.181226
1,'DALYs (Disability-Adjusted Life Years)',Jamaica,Percent,0.000007,2020,0.000007,0.000007
1,'DALYs (Disability-Adjusted Life Years)',Jamaica,Rate,0.270887,2020,0.262473,0.26737
1,'DALYs (Disability-Adjusted Life Years)',Qatar,Percent,0.000002,2017,0.000002,0.000001
1,'DALYs (Disability-Adjusted Life Years)',Qatar,Rate,0.036523,2017,0.038829,0.034588
1,'DALYs (Disability-Adjusted Life Years)',Rwanda,Percent,0.000003,2019,0.000003,0.000003
1,'DALYs (Disability-Adjusted Life Years)',Rwanda,Rate,0.179704,2019,0.188792,0.168727
1,'DALYs (Disability-Adjusted Life Years)',Mexico,Percent,0.000004,2019,0.000004,0.000004
1,'DALYs (Disability-Adjusted Life Years)',Mexico,Rate,0.148383,2019,0.139384,0.151046
1,'DALYs (Disability-Adjusted Life Years)','Costa Rica',Percent,0.000006,2020,0.000006,0.000006
1,'DALYs (Disability-Adjusted Life Years)','Costa Rica',Rate,0.18477,2020,0.174294,0.185991
1,'DALYs (Disability-Adjusted Life Years)',Chad,Percent,0,2018,0,0
1,'DALYs (Disability-Adjusted Life Years)',Chad,Rate,0.09474,2018,0.104469,0.083187
1,'DALYs (Disability-Adjusted Life Years)',Austria,Percent,0.000011,2019,0.000011,0.00001
1,'DALYs (Disability-Adjusted Life Years)',Austria,Rate,0.351359,2019,0.335516,0.345362
1,'DALYs (Disability-Adjusted Life Years)','North Macedonia',Percent,0.000009,2020,0.000009,0.000009
1,'DALYs (Disability-Adjusted Life Years)','North Macedonia',Rate,0.420358,2020,0.401751,0.412688
1,'DALYs (Disability-Adjusted Life Years)',Eswatini,Percent,0.000002,2019,0.000003,0.000002
1,'DALYs (Disability-Adjusted Life Years)',Eswatini,Rate,0.197693,2019,0.245544,0.151025
1,'DALYs (Disability-Adjusted Life Years)',Singapore,Percent,0.000009,2018,0.000009,0.000008
1,'DALYs (Disability-Adjusted Life Years)',Singapore,Rate,0.179234,2018,0.170828,0.177849
1,'DALYs (Disability-Adjusted Life Years)',Lithuania,Percent,0.000009,2020,0.000009,0.000009
1,'DALYs (Disability-Adjusted Life Years)',Lithuania,Rate,0.450739,2020,0.424029,0.45588
1,'DALYs (Disability-Adjusted Life Years)',Malta,Percent,0.00001,2017,0.00001,0.000009
1,'DALYs (Disability-Adjusted Life Years)',Malta,Rate,0.292607,2017,0.283323,0.284941
1,'DALYs (Disability-Adjusted Life Years)',Panama,Percent,0.000006,2018,0.000006,0.000005
1,'DALYs (Disability-Adjusted Life Years)',Panama,Rate,0.173565,2018,0.164643,0.174321
1,'DALYs (Disability-Adjusted Life Years)','Sierra Leone',Percent,0.000001,2019,0.000001,0.000001
1,'DALYs (Disability-Adjusted Life Years)','Sierra Leone',Rate,0.121134,2019,0.127556,0.111006
1,'DALYs (Disability-Adjusted Life Years)',Malaysia,Percent,0.000006,2020,0.000006,0.000005
1,'DALYs (Disability-Adjusted Life Years)',Malaysia,Rate,0.158961,2020,0.154353,0.15656
1,'DALYs (Disability-Adjusted Life Years)',Iceland,Number,0.98993,2019,0.954356,0.959251
1,'DALYs (Disability-Adjusted Life Years)',Iceland,Percent,0.000011,2019,0.000011,0.00001
1,'DALYs (Disability-Adjusted Life Years)',Iceland,Rate,0.277623,2019,0.267647,0.26902
1,'DALYs (Disability-Adjusted Life Years)',Iceland,Number,0.972913,2017,0.937321,0.949708
1,'DALYs (Disability-Adjusted Life Years)',Iceland,Percent,0.000011,2017,0.000011,0.00001
1,'DALYs (Disability-Adjusted Life Years)',Iceland,Rate,0.28672,2017,0.276231,0.279882
1,'DALYs (Disability-Adjusted Life Years)','Marshall Islands',Number,0.093709,2017,0.100145,0.084385
1,'DALYs (Disability-Adjusted Life Years)','Marshall Islands',Percent,0.000004,2017,0.000004,0.000004
1,'DALYs (Disability-Adjusted Life Years)','Marshall Islands',Rate,0.19329,2017,0.206564,0.174058
1,'DALYs (Disability-Adjusted Life Years)',Belarus,Percent,0.000008,2020,0.000008,0.000007
1,'DALYs (Disability-Adjusted Life Years)',Belarus,Rate,0.365176,2020,0.347624,0.366653
1,'DALYs (Disability-Adjusted Life Years)',Iraq,Percent,0.000004,2021,0.000005,0.000004
1,'DALYs (Disability-Adjusted Life Years)',Iraq,Rate,0.186574,2021,0.187452,0.177021
1,'DALYs (Disability-Adjusted Life Years)',Zimbabwe,Percent,0.000001,2020,0.000001,0.000001
1,'DALYs (Disability-Adjusted Life Years)',Zimbabwe,Rate,0.119305,2020,0.129141,0.103971
1,'DALYs (Disability-Adjusted Life Years)',Bhutan,Percent,0.000004,2019,0.000004,0.000003
1,'DALYs (Disability-Adjusted Life Years)',Bhutan,Rate,0.146117,2019,0.154755,0.133791
1,'DALYs (Disability-Adjusted Life Years)',Gabon,Percent,0.000003,2020,0.000003,0.000003
1,'DALYs (Disability-Adjusted Life Years)',Gabon,Rate,0.174335,2020,0.182928,0.15872
1,'DALYs (Disability-Adjusted Life Years)','Republic of Korea',Percent,0.00001,2020,0.000011,0.000009
1,'DALYs (Disability-Adjusted Life Years)','Republic of Korea',Rate,0.272763,2020,0.272934,0.261794
1,'DALYs (Disability-Adjusted Life Years)',Israel,Percent,0.000009,2021,0.000009,0.000008
1,'DALYs (Disability-Adjusted Life Years)',Israel,Rate,0.202669,2021,0.193483,0.199188
1,'DALYs (Disability-Adjusted Life Years)',Ecuador,Percent,0.000005,2017,0.000005,0.000005
1,'DALYs (Disability-Adjusted Life Years)',Ecuador,Rate,0.144882,2017,0.136698,0.146251
1,'DALYs (Disability-Adjusted Life Years)',Malawi,Percent,0.000003,2018,0.000003,0.000002
1,'DALYs (Disability-Adjusted Life Years)',Malawi,Rate,0.198081,2018,0.21749,0.166388
1,'DALYs (Disability-Adjusted Life Years)',Germany,Percent,0.000012,2018,0.000012,0.000011
1,'DALYs (Disability-Adjusted Life Years)',Germany,Rate,0.434514,2018,0.412532,0.428041
1,'DALYs (Disability-Adjusted Life Years)',Nicaragua,Percent,0.000004,2020,0.000004,0.000004
1,'DALYs (Disability-Adjusted Life Years)',Nicaragua,Rate,0.139223,2020,0.140383,0.136696
1,'DALYs (Disability-Adjusted Life Years)','Democratic Republic of the Congo',Percent,0.000001,2019,0.000002,0.000001
1,'DALYs (Disability-Adjusted Life Years)','Democratic Republic of the Congo',Rate,0.152755,2019,0.170838,0.121696
1,'DALYs (Disability-Adjusted Life Years)','Puerto Rico',Percent,0.000007,2019,0.000007,0.000006
1,'DALYs (Disability-Adjusted Life Years)','Puerto Rico',Rate,0.259944,2019,0.248067,0.257269
1,'DALYs (Disability-Adjusted Life Years)',Nigeria,Percent,0.000001,2020,0.000001,0.000001
1,'DALYs (Disability-Adjusted Life Years)',Nigeria,Rate,0.103419,2020,0.110516,0.090728
1,'DALYs (Disability-Adjusted Life Years)',Botswana,Percent,0.000002,2018,0.000002,0.000002
1,'DALYs (Disability-Adjusted Life Years)',Botswana,Rate,0.122645,2018,0.139907,0.101539
1,'DALYs (Disability-Adjusted Life Years)',Libya,Percent,0.000005,2018,0.000005,0.000004
1,'DALYs (Disability-Adjusted Life Years)',Libya,Rate,0.160468,2018,0.168336,0.1438
1,'DALYs (Disability-Adjusted Life Years)',Niger,Percent,0,2017,0,0
1,'DALYs (Disability-Adjusted Life Years)',Niger,Rate,0.094425,2017,0.108477,0.081081
1,'DALYs (Disability-Adjusted Life Years)',Fiji,Percent,0.000004,2019,0.000004,0.000004
1,'DALYs (Disability-Adjusted Life Years)',Fiji,Rate,0.194572,2019,0.195692,0.185304
1,'DALYs (Disability-Adjusted Life Years)','Antigua and Barbuda',Number,0.203414,2018,0.196489,0.200677
1,'DALYs (Disability-Adjusted Life Years)','Antigua and Barbuda',Percent,0.000007,2018,0.000007,0.000007
1,'DALYs (Disability-Adjusted Life Years)','Antigua and Barbuda',Rate,0.226476,2018,0.218765,0.223429
1,'DALYs (Disability-Adjusted Life Years)','Saint Vincent and the Grenadines',Number,0.325741,2017,0.319121,0.321167
1,'DALYs (Disability-Adjusted Life Years)','Saint Vincent and the Grenadines',Percent,0.000007,2017,0.000007,0.000007
1,'DALYs (Disability-Adjusted Life Years)','Saint Vincent and the Grenadines',Rate,0.281871,2017,0.276143,0.277913
1,'DALYs (Disability-Adjusted Life Years)',Bermuda,Number,0.233312,2019,0.223584,0.227589
1,'DALYs (Disability-Adjusted Life Years)',Bermuda,Percent,0.000011,2019,0.000011,0.00001
1,'DALYs (Disability-Adjusted Life Years)',Bermuda,Rate,0.361549,2019,0.346474,0.35268
1,'DALYs (Disability-Adjusted Life Years)',Qatar,Percent,0.000002,2019,0.000002,0.000001
1,'DALYs (Disability-Adjusted Life Years)',Qatar,Rate,0.03687,2019,0.03939,0.034837
1,'DALYs (Disability-Adjusted Life Years)',Djibouti,Percent,0.000003,2017,0.000003,0.000002
1,'DALYs (Disability-Adjusted Life Years)',Djibouti,Rate,0.163767,2017,0.173894,0.149757
1,'DALYs (Disability-Adjusted Life Years)',Georgia,Percent,0.000009,2019,0.000009,0.000009
1,'DALYs (Disability-Adjusted Life Years)',Georgia,Rate,0.405398,2019,0.386721,0.404251
1,'DALYs (Disability-Adjusted Life Years)',Eritrea,Percent,0.000003,2020,0.000003,0.000003
1,'DALYs (Disability-Adjusted Life Years)',Eritrea,Rate,0.219012,2020,0.229654,0.200265
1,'DALYs (Disability-Adjusted Life Years)','Lao Peoples Democratic Republic',Percent,0.000003,2018,0.000003,0.000003
1,'DALYs (Disability-Adjusted Life Years)','Lao Peoples Democratic Republic',Rate,0.149739,2018,0.156729,0.137571
1,'DALYs (Disability-Adjusted Life Years)',Andorra,Number,0.317389,2021,0.313418,0.301062
1,'DALYs (Disability-Adjusted Life Years)',Andorra,Percent,0.000013,2021,0.000013,0.000011
1,'DALYs (Disability-Adjusted Life Years)',Andorra,Rate,0.376077,2021,0.371372,0.35673
1,'DALYs (Disability-Adjusted Life Years)',Kyrgyzstan,Percent,0.000003,2021,0.000002,0.000003
1,'DALYs (Disability-Adjusted Life Years)',Kyrgyzstan,Rate,0.101732,2021,0.09603,0.103417
1,'DALYs (Disability-Adjusted Life Years)','Sao Tome and Principe',Number,0.319089,2021,0.367991,0.245036
1,'DALYs (Disability-Adjusted Life Years)','Sao Tome and Principe',Percent,0.000003,2021,0.000004,0.000002
1,'DALYs (Disability-Adjusted Life Years)','Sao Tome and Principe',Rate,0.147339,2021,0.16992,0.113145
1,'DALYs (Disability-Adjusted Life Years)',Italy,Percent,0.000012,2019,0.000013,0.000011
1,'DALYs (Disability-Adjusted Life Years)',Italy,Rate,0.404119,2019,0.390023,0.388404
1,'DALYs (Disability-Adjusted Life Years)',Maldives,Number,0.395525,2021,0.390853,0.382625
1,'DALYs (Disability-Adjusted Life Years)',Maldives,Percent,0.000003,2021,0.000003,0.000003
1,'DALYs (Disability-Adjusted Life Years)',Maldives,Rate,0.076588,2021,0.075683,0.07409
1,'DALYs (Disability-Adjusted Life Years)',Portugal,Percent,0.000011,2020,0.000011,0.00001
1,'DALYs (Disability-Adjusted Life Years)',Portugal,Rate,0.410836,2020,0.391484,0.403723
1,'DALYs (Disability-Adjusted Life Years)',China,Percent,0.000009,2019,0.00001,0.000009
1,'DALYs (Disability-Adjusted Life Years)',China,Rate,0.263138,2019,0.258661,0.259181
1,'DALYs (Disability-Adjusted Life Years)','South Africa',Percent,0.000003,2019,0.000003,0.000003
1,'DALYs (Disability-Adjusted Life Years)','South Africa',Rate,0.195954,2019,0.204434,0.178896
1,'DALYs (Disability-Adjusted Life Years)',Spain,Percent,0.000012,2018,0.000012,0.000011
1,'DALYs (Disability-Adjusted Life Years)',Spain,Rate,0.35645,2018,0.340479,0.347348
1,'DALYs (Disability-Adjusted Life Years)',Senegal,Percent,0.000001,2017,0.000001,0.000001
1,'DALYs (Disability-Adjusted Life Years)',Senegal,Rate,0.083017,2017,0.085594,0.076853
1,'DALYs (Disability-Adjusted Life Years)',Monaco,Number,0.314876,2021,0.335005,0.282265
1,'DALYs (Disability-Adjusted Life Years)',Monaco,Percent,0.000019,2021,0.00002,0.000017
1,'DALYs (Disability-Adjusted Life Years)',Monaco,Rate,0.814508,2021,0.866576,0.730152
1,'DALYs (Disability-Adjusted Life Years)',Tuvalu,Number,0.028457,2018,0.03032,0.025492
1,'DALYs (Disability-Adjusted Life Years)',Tuvalu,Percent,0.000004,2018,0.000005,0.000004
1,'DALYs (Disability-Adjusted Life Years)',Tuvalu,Rate,0.259314,2018,0.276298,0.232293
1,'DALYs (Disability-Adjusted Life Years)',Nepal,Percent,0.000002,2017,0.000002,0.000002
1,'DALYs (Disability-Adjusted Life Years)',Nepal,Rate,0.090892,2017,0.094551,0.085656
1,'DALYs (Disability-Adjusted Life Years)','Sri Lanka',Percent,0.000005,2019,0.000005,0.000004
1,'DALYs (Disability-Adjusted Life Years)','Sri Lanka',Rate,0.149968,2019,0.145304,0.143983
1,'DALYs (Disability-Adjusted Life Years)','Papua New Guinea',Percent,0.000002,2021,0.000002,0.000002
1,'DALYs (Disability-Adjusted Life Years)','Papua New Guinea',Rate,0.128414,2021,0.133066,0.113129
1,'DALYs (Disability-Adjusted Life Years)','South Sudan',Percent,0.000002,2019,0.000002,0.000002
1,'DALYs (Disability-Adjusted Life Years)','South Sudan',Rate,0.215918,2019,0.226377,0.192857
1,'DALYs (Disability-Adjusted Life Years)','Venezuela (Bolivarian Republic of)',Percent,0.000005,2019,0.000005,0.000005
1,'DALYs (Disability-Adjusted Life Years)','Venezuela (Bolivarian Republic of)',Rate,0.216508,2019,0.207428,0.215382
1,'DALYs (Disability-Adjusted Life Years)',Kiribati,Number,0.1405,2018,0.151611,0.119381
1,'DALYs (Disability-Adjusted Life Years)',Kiribati,Percent,0.000002,2018,0.000002,0.000002
1,'DALYs (Disability-Adjusted Life Years)',Kiribati,Rate,0.118932,2018,0.128337,0.101055
1,'DALYs (Disability-Adjusted Life Years)',Guatemala,Percent,0.000003,2020,0.000003,0.000003
1,'DALYs (Disability-Adjusted Life Years)',Guatemala,Rate,0.122867,2020,0.116058,0.124422
1,'DALYs (Disability-Adjusted Life Years)',Niue,Number,0.004067,2019,0.004214,0.003765
1,'DALYs (Disability-Adjusted Life Years)',Niue,Percent,0.000005,2019,0.000006,0.000005
1,'DALYs (Disability-Adjusted Life Years)',Niue,Rate,0.246662,2019,0.255554,0.228324
1,'DALYs (Disability-Adjusted Life Years)','United Arab Emirates',Percent,0.000002,2021,0.000002,0.000002
1,'DALYs (Disability-Adjusted Life Years)','United Arab Emirates',Rate,0.046191,2021,0.049633,0.043529
1,'DALYs (Disability-Adjusted Life Years)','Democratic Republic of the Congo',Percent,0.000001,2018,0.000002,0.000001
1,'DALYs (Disability-Adjusted Life Years)','Democratic Republic of the Congo',Rate,0.148557,2018,0.166265,0.118442
1,'DALYs (Disability-Adjusted Life Years)',Bahrain,Percent,0.000004,2018,0.000004,0.000004
1,'DALYs (Disability-Adjusted Life Years)',Bahrain,Rate,0.09319,2018,0.093644,0.088416
1,'DALYs (Disability-Adjusted Life Years)',Samoa,Number,0.234004,2021,0.256333,0.204049
1,'DALYs (Disability-Adjusted Life Years)',Samoa,Percent,0.000002,2021,0.000003,0.000002
1,'DALYs (Disability-Adjusted Life Years)',Samoa,Rate,0.109273,2021,0.1197,0.095285
1,'DALYs (Disability-Adjusted Life Years)','American Samoa',Number,0.118003,2020,0.119746,0.110299
1,'DALYs (Disability-Adjusted Life Years)','American Samoa',Percent,0.000006,2020,0.000006,0.000005
1,'DALYs (Disability-Adjusted Life Years)','American Samoa',Rate,0.23204,2020,0.235466,0.216889
1,'DALYs (Disability-Adjusted Life Years)','Bolivia (Plurinational State of)',Percent,0.000006,2018,0.000006,0.000005
1,'DALYs (Disability-Adjusted Life Years)','Bolivia (Plurinational State of)',Rate,0.232069,2018,0.236808,0.220989
1,'DALYs (Disability-Adjusted Life Years)',Serbia,Percent,0.000012,2019,0.000012,0.000011
1,'DALYs (Disability-Adjusted Life Years)',Serbia,Rate,0.48109,2019,0.461739,0.476496
1,'DALYs (Disability-Adjusted Life Years)',Belize,Number,0.577356,2021,0.556188,0.574112
1,'DALYs (Disability-Adjusted Life Years)',Belize,Percent,0.000003,2021,0.000003,0.000003
1,'DALYs (Disability-Adjusted Life Years)',Belize,Rate,0.14284,2021,0.137603,0.142037
1,'DALYs (Disability-Adjusted Life Years)','Saint Kitts and Nevis',Number,0.120895,2020,0.116497,0.120097
1,'DALYs (Disability-Adjusted Life Years)','Saint Kitts and Nevis',Percent,0.000006,2020,0.000006,0.000006
1,'DALYs (Disability-Adjusted Life Years)','Saint Kitts and Nevis',Rate,0.250072,2020,0.240974,0.248421
1,'DALYs (Disability-Adjusted Life Years)',Uzbekistan,Percent,0.000003,2019,0.000003,0.000003
1,'DALYs (Disability-Adjusted Life Years)',Uzbekistan,Rate,0.131013,2019,0.123766,0.133159
1,'DALYs (Disability-Adjusted Life Years)',Ireland,Percent,0.00001,2020,0.00001,0.000009
1,'DALYs (Disability-Adjusted Life Years)',Ireland,Rate,0.276996,2020,0.26465,0.273297
1,'DALYs (Disability-Adjusted Life Years)',Croatia,Percent,0.000011,2020,0.000011,0.00001
1,'DALYs (Disability-Adjusted Life Years)',Croatia,Rate,0.484321,2020,0.456407,0.487197
1,'DALYs (Disability-Adjusted Life Years)',Seychelles,Number,0.269355,2020,0.267838,0.263228
1,'DALYs (Disability-Adjusted Life Years)',Seychelles,Percent,0.000008,2020,0.000008,0.000007
1,'DALYs (Disability-Adjusted Life Years)',Seychelles,Rate,0.258761,2020,0.257304,0.252876
1,'DALYs (Disability-Adjusted Life Years)',Cuba,Percent,0.00001,2020,0.00001,0.000009
1,'DALYs (Disability-Adjusted Life Years)',Cuba,Rate,0.371366,2020,0.350411,0.37492
1,'DALYs (Disability-Adjusted Life Years)',Yemen,Percent,0.000001,2019,0.000001,0.000001
1,'DALYs (Disability-Adjusted Life Years)',Yemen,Rate,0.076494,2019,0.084954,0.063058
1,'DALYs (Disability-Adjusted Life Years)','Trinidad and Tobago',Percent,0.000005,2021,0.000005,0.000005
1,'DALYs (Disability-Adjusted Life Years)','Trinidad and Tobago',Rate,0.308904,2021,0.297616,0.309024
1,'DALYs (Disability-Adjusted Life Years)',Benin,Percent,0.000001,2020,0.000001,0.000001
1,'DALYs (Disability-Adjusted Life Years)',Benin,Rate,0.091175,2020,0.097443,0.079394
1,'DALYs (Disability-Adjusted Life Years)',Malawi,Percent,0.000003,2019,0.000003,0.000003
1,'DALYs (Disability-Adjusted Life Years)',Malawi,Rate,0.201839,2019,0.222256,0.169174
1,'DALYs (Disability-Adjusted Life Years)',Cyprus,Percent,0.00001,2019,0.00001,0.000009
1,'DALYs (Disability-Adjusted Life Years)',Cyprus,Rate,0.278727,2019,0.27793,0.266198
1,'DALYs (Disability-Adjusted Life Years)',Algeria,Percent,0.000003,2020,0.000003,0.000002
1,'DALYs (Disability-Adjusted Life Years)',Algeria,Rate,0.109034,2020,0.118932,0.094291
1,'DALYs (Disability-Adjusted Life Years)','American Samoa',Number,0.114142,2019,0.115843,0.107833
1,'DALYs (Disability-Adjusted Life Years)','American Samoa',Percent,0.000006,2019,0.000006,0.000005
1,'DALYs (Disability-Adjusted Life Years)','American Samoa',Rate,0.221623,2019,0.224926,0.209373
1,'DALYs (Disability-Adjusted Life Years)',Fiji,Percent,0.000004,2020,0.000004,0.000004
1,'DALYs (Disability-Adjusted Life Years)',Fiji,Rate,0.19727,2020,0.199731,0.189331
1,'DALYs (Disability-Adjusted Life Years)',France,Percent,0.000012,2020,0.000012,0.000011
1,'DALYs (Disability-Adjusted Life Years)',France,Rate,0.382314,2020,0.364338,0.373923
1,'DALYs (Disability-Adjusted Life Years)','Saudi Arabia',Percent,0.000003,2020,0.000003,0.000002
1,'DALYs (Disability-Adjusted Life Years)','Saudi Arabia',Rate,0.082588,2020,0.092308,0.077821
1,'DALYs (Disability-Adjusted Life Years)','Republic of Moldova',Percent,0.000005,2021,0.000005,0.000005
1,'DALYs (Disability-Adjusted Life Years)','Republic of Moldova',Rate,0.272133,2021,0.256196,0.277993
1,'DALYs (Disability-Adjusted Life Years)',Comoros,Number,0.635622,2018,0.651174,0.599533
1,'DALYs (Disability-Adjusted Life Years)',Comoros,Percent,0.000001,2018,0.000001,0.000001
1,'DALYs (Disability-Adjusted Life Years)',Comoros,Rate,0.079636,2018,0.081584,0.075114
1,'DALYs (Disability-Adjusted Life Years)','Sri Lanka',Percent,0.000005,2017,0.000005,0.000004
1,'DALYs (Disability-Adjusted Life Years)','Sri Lanka',Rate,0.150701,2017,0.146071,0.145169
1,'DALYs (Disability-Adjusted Life Years)',Somalia,Percent,0,2018,0,0
1,'DALYs (Disability-Adjusted Life Years)',Somalia,Rate,0.096598,2018,0.105461,0.083434
1,'DALYs (Disability-Adjusted Life Years)',Grenada,Number,0.329799,2019,0.322385,0.325461
1,'DALYs (Disability-Adjusted Life Years)',Grenada,Percent,0.000007,2019,0.000007,0.000007
1,'DALYs (Disability-Adjusted Life Years)',Grenada,Rate,0.289306,2019,0.282802,0.285501
1,'DALYs (Disability-Adjusted Life Years)',Vanuatu,Number,0.298455,2019,0.315602,0.271343
1,'DALYs (Disability-Adjusted Life Years)',Vanuatu,Percent,0.000002,2019,0.000002,0.000002
1,'DALYs (Disability-Adjusted Life Years)',Vanuatu,Rate,0.098379,2019,0.104031,0.089442
1,'DALYs (Disability-Adjusted Life Years)',Mali,Percent,0.000001,2020,0.000001,0.000001
1,'DALYs (Disability-Adjusted Life Years)',Mali,Rate,0.132912,2020,0.141471,0.122197
1,'DALYs (Disability-Adjusted Life Years)',Congo,Percent,0.000002,2019,0.000002,0.000001
1,'DALYs (Disability-Adjusted Life Years)',Congo,Rate,0.11991,2019,0.13115,0.105928
1,'DALYs (Disability-Adjusted Life Years)',Mongolia,Percent,0.000008,2020,0.000008,0.000008
1,'DALYs (Disability-Adjusted Life Years)',Mongolia,Rate,0.260413,2020,0.256395,0.255956
1,'DALYs (Disability-Adjusted Life Years)','Syrian Arab Republic',Percent,0.000002,2018,0.000002,0.000002
1,'DALYs (Disability-Adjusted Life Years)','Syrian Arab Republic',Rate,0.093478,2018,0.094814,0.086867
1,'DALYs (Disability-Adjusted Life Years)','Russian Federation',Percent,0.000007,2020,0.000006,0.000006
1,'DALYs (Disability-Adjusted Life Years)','Russian Federation',Rate,0.356228,2020,0.334215,0.362084
1,'DALYs (Disability-Adjusted Life Years)',Yemen,Percent,0.000001,2017,0.000001,0.000001
1,'DALYs (Disability-Adjusted Life Years)',Yemen,Rate,0.075885,2017,0.084432,0.062135
1,'DALYs (Disability-Adjusted Life Years)',Senegal,Percent,0.000001,2020,0.000001,0.000001
1,'DALYs (Disability-Adjusted Life Years)',Senegal,Rate,0.084502,2020,0.086092,0.07814
1,'DALYs (Disability-Adjusted Life Years)',Estonia,Percent,0.00001,2018,0.00001,0.00001
1,'DALYs (Disability-Adjusted Life Years)',Estonia,Rate,0.412498,2018,0.391908,0.412518
1,'DALYs (Disability-Adjusted Life Years)','Saint Vincent and the Grenadines',Number,0.347085,2019,0.334559,0.343823
1,'DALYs (Disability-Adjusted Life Years)','Saint Vincent and the Grenadines',Percent,0.000008,2019,0.000008,0.000007
1,'DALYs (Disability-Adjusted Life Years)','Saint Vincent and the Grenadines',Rate,0.299202,2019,0.288405,0.296391
1,'DALYs (Disability-Adjusted Life Years)',Nepal,Percent,0.000002,2019,0.000002,0.000002
1,'DALYs (Disability-Adjusted Life Years)',Nepal,Rate,0.094253,2019,0.097905,0.087518
1,'DALYs (Disability-Adjusted Life Years)',Kenya,Percent,0.000003,2021,0.000003,0.000003
1,'DALYs (Disability-Adjusted Life Years)',Kenya,Rate,0.164956,2021,0.17074,0.152387
1,'DALYs (Disability-Adjusted Life Years)',Gambia,Percent,0.000001,2019,0.000001,0.000001
1,'DALYs (Disability-Adjusted Life Years)',Gambia,Rate,0.071914,2019,0.079493,0.062543
1,'DALYs (Disability-Adjusted Life Years)',Liberia,Percent,0.000001,2019,0.000001,0.000001
1,'DALYs (Disability-Adjusted Life Years)',Liberia,Rate,0.136851,2019,0.149109,0.116833
1,'DALYs (Disability-Adjusted Life Years)',India,Percent,0.000003,2018,0.000003,0.000002
1,'DALYs (Disability-Adjusted Life Years)',India,Rate,0.123101,2018,0.123887,0.119233
1,'DALYs (Disability-Adjusted Life Years)',Ecuador,Percent,0.000005,2019,0.000005,0.000005
1,'DALYs (Disability-Adjusted Life Years)',Ecuador,Rate,0.15721,2019,0.148416,0.158475
1,'DALYs (Disability-Adjusted Life Years)',Panama,Percent,0.000005,2021,0.000004,0.000004
1,'DALYs (Disability-Adjusted Life Years)',Panama,Rate,0.160126,2021,0.152134,0.161435
1,'DALYs (Disability-Adjusted Life Years)','Venezuela (Bolivarian Republic of)',Percent,0.000006,2020,0.000006,0.000005
1,'DALYs (Disability-Adjusted Life Years)','Venezuela (Bolivarian Republic of)',Rate,0.236424,2020,0.227804,0.233388
1,'DALYs (Disability-Adjusted Life Years)',Türkiye,Percent,0.000007,2020,0.000007,0.000006
1,'DALYs (Disability-Adjusted Life Years)',Türkiye,Rate,0.229318,2020,0.22479,0.213974
1,'DALYs (Disability-Adjusted Life Years)',Honduras,Percent,0.000003,2018,0.000003,0.000002
1,'DALYs (Disability-Adjusted Life Years)',Honduras,Rate,0.091333,2018,0.093385,0.085069
1,'DALYs (Disability-Adjusted Life Years)',Colombia,Percent,0.000004,2021,0.000004,0.000004
1,'DALYs (Disability-Adjusted Life Years)',Colombia,Rate,0.169802,2021,0.159259,0.173007
1,'DALYs (Disability-Adjusted Life Years)','Equatorial Guinea',Percent,0.000002,2021,0.000002,0.000001
1,'DALYs (Disability-Adjusted Life Years)','Equatorial Guinea',Rate,0.145581,2021,0.162611,0.118005
1,'DALYs (Disability-Adjusted Life Years)',Chile,Percent,0.000007,2021,0.000007,0.000007
1,'DALYs (Disability-Adjusted Life Years)',Chile,Rate,0.231901,2021,0.217809,0.233185
1,'DALYs (Disability-Adjusted Life Years)',Sweden,Percent,0.000011,2019,0.000011,0.00001
1,'DALYs (Disability-Adjusted Life Years)',Sweden,Rate,0.320208,2019,0.307354,0.310351
1,'DALYs (Disability-Adjusted Life Years)',Zambia,Percent,0.000002,2021,0.000002,0.000002
1,'DALYs (Disability-Adjusted Life Years)',Zambia,Rate,0.15925,2021,0.16913,0.144962
1,'DALYs (Disability-Adjusted Life Years)',Uruguay,Percent,0.000012,2019,0.000012,0.000011
1,'DALYs (Disability-Adjusted Life Years)',Uruguay,Rate,0.415336,2019,0.39274,0.416539
1,'DALYs (Disability-Adjusted Life Years)',Myanmar,Percent,0.000003,2020,0.000003,0.000003
1,'DALYs (Disability-Adjusted Life Years)',Myanmar,Rate,0.184037,2020,0.19178,0.170234
1,'DALYs (Disability-Adjusted Life Years)',Albania,Percent,0.000007,2021,0.000007,0.000007
1,'DALYs (Disability-Adjusted Life Years)',Albania,Rate,0.306341,2021,0.307223,0.298182
1,'DALYs (Disability-Adjusted Life Years)',Indonesia,Percent,0.000004,2020,0.000005,0.000004
1,'DALYs (Disability-Adjusted Life Years)',Indonesia,Rate,0.181301,2020,0.187966,0.169888
1,'DALYs (Disability-Adjusted Life Years)',Niue,Number,0.003781,2021,0.004032,0.00338
1,'DALYs (Disability-Adjusted Life Years)',Niue,Percent,0.000004,2021,0.000005,0.000004
1,'DALYs (Disability-Adjusted Life Years)',Niue,Rate,0.227069,2021,0.242139,0.202986
1,'DALYs (Disability-Adjusted Life Years)','United Republic of Tanzania',Percent,0.000002,2017,0.000002,0.000002
1,'DALYs (Disability-Adjusted Life Years)','United Republic of Tanzania',Rate,0.127204,2017,0.138014,0.1152
1,'DALYs (Disability-Adjusted Life Years)','Taiwan (Province of China)',Percent,0.000012,2021,0.000012,0.000011
1,'DALYs (Disability-Adjusted Life Years)','Taiwan (Province of China)',Rate,0.3894,2021,0.369557,0.386392
1,'DALYs (Disability-Adjusted Life Years)',Comoros,Number,0.655492,2019,0.667269,0.618968
1,'DALYs (Disability-Adjusted Life Years)',Comoros,Percent,0.000001,2019,0.000001,0.000001
1,'DALYs (Disability-Adjusted Life Years)',Comoros,Rate,0.080427,2019,0.081872,0.075946
1,'DALYs (Disability-Adjusted Life Years)',Lebanon,Percent,0.000008,2019,0.000008,0.000007
1,'DALYs (Disability-Adjusted Life Years)',Lebanon,Rate,0.23571,2019,0.231989,0.23
1,'DALYs (Disability-Adjusted Life Years)','Cabo Verde',Number,0.853074,2020,0.912696,0.776429
1,'DALYs (Disability-Adjusted Life Years)','Cabo Verde',Percent,0.000005,2020,0.000005,0.000004
1,'DALYs (Disability-Adjusted Life Years)','Cabo Verde',Rate,0.169205,2020,0.181031,0.154002
1,'DALYs (Disability-Adjusted Life Years)',Norway,Percent,0.00001,2021,0.00001,0.000009
1,'DALYs (Disability-Adjusted Life Years)',Norway,Rate,0.293633,2021,0.283397,0.28612
1,'DALYs (Disability-Adjusted Life Years)',Lebanon,Percent,0.000006,2017,0.000006,0.000006
1,'DALYs (Disability-Adjusted Life Years)',Lebanon,Rate,0.172132,2017,0.169603,0.166435
1,'DALYs (Disability-Adjusted Life Years)','Marshall Islands',Number,0.095151,2019,0.101146,0.085245
1,'DALYs (Disability-Adjusted Life Years)','Marshall Islands',Percent,0.000004,2019,0.000005,0.000004
1,'DALYs (Disability-Adjusted Life Years)','Marshall Islands',Rate,0.206824,2019,0.219854,0.185292
1,'DALYs (Disability-Adjusted Life Years)',Poland,Percent,0.000011,2020,0.000011,0.00001
1,'DALYs (Disability-Adjusted Life Years)',Poland,Rate,0.454782,2020,0.427812,0.458168
1,'DALYs (Disability-Adjusted Life Years)',Brazil,Percent,0.000006,2017,0.000006,0.000006
1,'DALYs (Disability-Adjusted Life Years)',Brazil,Rate,0.212989,2017,0.200583,0.213884
1,'DALYs (Disability-Adjusted Life Years)',Qatar,Percent,0.000001,2020,0.000002,0.000001
1,'DALYs (Disability-Adjusted Life Years)',Qatar,Rate,0.035979,2020,0.038255,0.034377
1,'DALYs (Disability-Adjusted Life Years)',Burundi,Percent,0.000001,2020,0.000001,0.000001
1,'DALYs (Disability-Adjusted Life Years)',Burundi,Rate,0.146074,2020,0.155669,0.13143
1,'DALYs (Disability-Adjusted Life Years)',Switzerland,Percent,0.000011,2018,0.000011,0.00001
1,'DALYs (Disability-Adjusted Life Years)',Switzerland,Rate,0.30837,2018,0.296384,0.298498
1,'DALYs (Disability-Adjusted Life Years)',Haiti,Percent,0.000002,2021,0.000002,0.000002
1,'DALYs (Disability-Adjusted Life Years)',Haiti,Rate,0.183363,2021,0.192535,0.163347
1,'DALYs (Disability-Adjusted Life Years)',Bhutan,Percent,0.000004,2020,0.000004,0.000004
1,'DALYs (Disability-Adjusted Life Years)',Bhutan,Rate,0.152439,2020,0.16263,0.138856
1,'DALYs (Disability-Adjusted Life Years)',Belgium,Percent,0.000011,2018,0.000012,0.00001
1,'DALYs (Disability-Adjusted Life Years)',Belgium,Rate,0.376758,2018,0.361369,0.367324
1,'DALYs (Disability-Adjusted Life Years)',Malta,Percent,0.00001,2019,0.00001,0.000009
1,'DALYs (Disability-Adjusted Life Years)',Malta,Rate,0.289005,2019,0.279326,0.281362
1,'DALYs (Disability-Adjusted Life Years)',Finland,Percent,0.00001,2021,0.00001,0.000009
1,'DALYs (Disability-Adjusted Life Years)',Finland,Rate,0.35394,2021,0.339825,0.342991
1,'DALYs (Disability-Adjusted Life Years)','Central African Republic',Percent,0,2021,0,0
1,'DALYs (Disability-Adjusted Life Years)','Central African Republic',Rate,0.11027,2021,0.125187,0.088356
1,'DALYs (Disability-Adjusted Life Years)',Zimbabwe,Percent,0.000001,2019,0.000001,0.000001
1,'DALYs (Disability-Adjusted Life Years)',Zimbabwe,Rate,0.12023,2019,0.130823,0.101519
1,'DALYs (Disability-Adjusted Life Years)',Argentina,Percent,0.000008,2020,0.000008,0.000007
1,'DALYs (Disability-Adjusted Life Years)',Argentina,Rate,0.257892,2020,0.242806,0.261395
1,'DALYs (Disability-Adjusted Life Years)','Saint Vincent and the Grenadines',Number,0.348577,2020,0.338322,0.34439
1,'DALYs (Disability-Adjusted Life Years)','Saint Vincent and the Grenadines',Percent,0.000007,2020,0.000007,0.000007
1,'DALYs (Disability-Adjusted Life Years)','Saint Vincent and the Grenadines',Rate,0.300412,2020,0.291574,0.296803
1,'DALYs (Disability-Adjusted Life Years)',Togo,Percent,0.000001,2017,0.000001,0.000001
1,'DALYs (Disability-Adjusted Life Years)',Togo,Rate,0.099911,2017,0.106861,0.09066
1,'DALYs (Disability-Adjusted Life Years)',Montenegro,Percent,0.000008,2021,0.000008,0.000007
1,'DALYs (Disability-Adjusted Life Years)',Montenegro,Rate,0.392184,2021,0.38605,0.373577
1,'DALYs (Disability-Adjusted Life Years)',Greenland,Number,0.268034,2019,0.265817,0.260739
1,'DALYs (Disability-Adjusted Life Years)',Greenland,Percent,0.000011,2019,0.000011,0.00001
1,'DALYs (Disability-Adjusted Life Years)',Greenland,Rate,0.478701,2019,0.474742,0.465673
1,'DALYs (Disability-Adjusted Life Years)',Czechia,Percent,0.000011,2018,0.000011,0.000011
1,'DALYs (Disability-Adjusted Life Years)',Czechia,Rate,0.417157,2018,0.392427,0.42061
1,'DALYs (Disability-Adjusted Life Years)',Iceland,Number,0.982579,2020,0.949294,0.957291
1,'DALYs (Disability-Adjusted Life Years)',Iceland,Percent,0.00001,2020,0.00001,0.000009
1,'DALYs (Disability-Adjusted Life Years)',Iceland,Rate,0.270366,2020,0.261207,0.263407
1,'DALYs (Disability-Adjusted Life Years)',Latvia,Percent,0.000009,2020,0.000009,0.000009
1,'DALYs (Disability-Adjusted Life Years)',Latvia,Rate,0.439438,2020,0.414383,0.443277
1,'DALYs (Disability-Adjusted Life Years)',Luxembourg,Percent,0.000009,2021,0.00001,0.000009
1,'DALYs (Disability-Adjusted Life Years)',Luxembourg,Rate,0.260387,2021,0.250779,0.25801
1,'DALYs (Disability-Adjusted Life Years)','South Sudan',Percent,0.000002,2021,0.000002,0.000002
1,'DALYs (Disability-Adjusted Life Years)','South Sudan',Rate,0.213711,2021,0.227506,0.193731
1,'DALYs (Disability-Adjusted Life Years)',Tonga,Number,0.244223,2021,0.260413,0.222538
1,'DALYs (Disability-Adjusted Life Years)',Tonga,Percent,0.000006,2021,0.000007,0.000006
1,'DALYs (Disability-Adjusted Life Years)',Tonga,Rate,0.234568,2021,0.250118,0.213741
1,'DALYs (Disability-Adjusted Life Years)',Jordan,Percent,0.000004,2020,0.000004,0.000004
1,'DALYs (Disability-Adjusted Life Years)',Jordan,Rate,0.118762,2020,0.116756,0.115985
1,'DALYs (Disability-Adjusted Life Years)',Georgia,Percent,0.000008,2020,0.000008,0.000008
1,'DALYs (Disability-Adjusted Life Years)',Georgia,Rate,0.400043,2020,0.37927,0.402112
1,'DALYs (Disability-Adjusted Life Years)','San Marino',Number,0.098217,2019,0.099617,0.092363
1,'DALYs (Disability-Adjusted Life Years)','San Marino',Percent,0.00001,2019,0.000011,0.000009
1,'DALYs (Disability-Adjusted Life Years)','San Marino',Rate,0.282774,2019,0.286806,0.265921
1,'DALYs (Disability-Adjusted Life Years)',Greece,Percent,0.000012,2018,0.000012,0.000011
1,'DALYs (Disability-Adjusted Life Years)',Greece,Rate,0.41461,2018,0.394118,0.406036
1,'DALYs (Disability-Adjusted Life Years)',Somalia,Percent,0,2019,0,0
1,'DALYs (Disability-Adjusted Life Years)',Somalia,Rate,0.097724,2019,0.105943,0.084219
1,'DALYs (Disability-Adjusted Life Years)',Oman,Percent,0.000002,2021,0.000002,0.000002
1,'DALYs (Disability-Adjusted Life Years)',Oman,Rate,0.066973,2021,0.068694,0.061764
1,'DALYs (Disability-Adjusted Life Years)',Bangladesh,Percent,0.000004,2021,0.000004,0.000004
1,'DALYs (Disability-Adjusted Life Years)',Bangladesh,Rate,0.178154,2021,0.18183,0.167089
1,'DALYs (Disability-Adjusted Life Years)',Mexico,Percent,0.000003,2020,0.000003,0.000003
1,'DALYs (Disability-Adjusted Life Years)',Mexico,Rate,0.149171,2020,0.139737,0.152472
1,'DALYs (Disability-Adjusted Life Years)',Egypt,Percent,0.000003,2020,0.000003,0.000003
1,'DALYs (Disability-Adjusted Life Years)',Egypt,Rate,0.120823,2020,0.120504,0.114369
1,'DALYs (Disability-Adjusted Life Years)',Sudan,Percent,0.000002,2020,0.000003,0.000002
1,'DALYs (Disability-Adjusted Life Years)',Sudan,Rate,0.127242,2020,0.140736,0.10757
1,'DALYs (Disability-Adjusted Life Years)',Guinea-Bissau,Percent,0.000001,2019,0.000001,0.000001
1,'DALYs (Disability-Adjusted Life Years)',Guinea-Bissau,Rate,0.10987,2019,0.118249,0.09443
1,'DALYs (Disability-Adjusted Life Years)','Bolivia (Plurinational State of)',Percent,0.000005,2021,0.000005,0.000005
1,'DALYs (Disability-Adjusted Life Years)','Bolivia (Plurinational State of)',Rate,0.278239,2021,0.278672,0.268666
1,'DALYs (Disability-Adjusted Life Years)',Tajikistan,Percent,0.000003,2021,0.000003,0.000002
1,'DALYs (Disability-Adjusted Life Years)',Tajikistan,Rate,0.10162,2021,0.109041,0.093771
1,'DALYs (Disability-Adjusted Life Years)',Mozambique,Percent,0,2019,0,0
1,'DALYs (Disability-Adjusted Life Years)',Mozambique,Rate,0.07775,2019,0.081393,0.071062
1,'DALYs (Disability-Adjusted Life Years)',Turkmenistan,Percent,0.000003,2021,0.000003,0.000003
1,'DALYs (Disability-Adjusted Life Years)',Turkmenistan,Rate,0.164833,2021,0.162337,0.159455
1,'DALYs (Disability-Adjusted Life Years)',Tunisia,Percent,0.000005,2020,0.000005,0.000005
1,'DALYs (Disability-Adjusted Life Years)',Tunisia,Rate,0.214011,2020,0.214875,0.207788
1,'DALYs (Disability-Adjusted Life Years)',Palau,Number,0.067026,2019,0.067656,0.06393
1,'DALYs (Disability-Adjusted Life Years)',Palau,Percent,0.000008,2019,0.000008,0.000007
1,'DALYs (Disability-Adjusted Life Years)',Palau,Rate,0.372005,2019,0.375499,0.354819
1,'DALYs (Disability-Adjusted Life Years)',Ethiopia,Percent,0.000003,2021,0.000004,0.000003
1,'DALYs (Disability-Adjusted Life Years)',Ethiopia,Rate,0.21483,2021,0.229245,0.199611
1,'DALYs (Disability-Adjusted Life Years)',China,Percent,0.000009,2020,0.00001,0.000009
1,'DALYs (Disability-Adjusted Life Years)',China,Rate,0.257051,2020,0.251451,0.254431
1,'DALYs (Disability-Adjusted Life Years)',Ukraine,Percent,0.000005,2021,0.000005,0.000005
1,'DALYs (Disability-Adjusted Life Years)',Ukraine,Rate,0.337009,2021,0.318462,0.340883
1,'DALYs (Disability-Adjusted Life Years)',Bahamas,Percent,0.000007,2019,0.000007,0.000007
1,'DALYs (Disability-Adjusted Life Years)',Bahamas,Rate,0.30338,2019,0.289895,0.302988
1,'DALYs (Disability-Adjusted Life Years)',Gambia,Percent,0,2018,0,0
1,'DALYs (Disability-Adjusted Life Years)',Gambia,Rate,0.067569,2018,0.075951,0.058354
1,'DALYs (Disability-Adjusted Life Years)',Dominica,Number,0.224033,2020,0.224693,0.214912
1,'DALYs (Disability-Adjusted Life Years)',Dominica,Percent,0.000008,2020,0.000009,0.000008
1,'DALYs (Disability-Adjusted Life Years)',Dominica,Rate,0.320933,2020,0.321879,0.307867
1,'DALYs (Disability-Adjusted Life Years)',Angola,Percent,0.000001,2020,0.000001,0.000001
1,'DALYs (Disability-Adjusted Life Years)',Angola,Rate,0.117861,2020,0.126316,0.106277
1,'DALYs (Disability-Adjusted Life Years)',Eswatini,Percent,0.000002,2021,0.000003,0.000002
1,'DALYs (Disability-Adjusted Life Years)',Eswatini,Rate,0.216171,2021,0.258836,0.17315
1,'DALYs (Disability-Adjusted Life Years)',Austria,Percent,0.00001,2020,0.00001,0.00001
1,'DALYs (Disability-Adjusted Life Years)',Austria,Rate,0.352338,2020,0.335769,0.34725
1,'DALYs (Disability-Adjusted Life Years)',Sweden,Percent,0.00001,2020,0.00001,0.000009
1,'DALYs (Disability-Adjusted Life Years)',Sweden,Rate,0.316018,2020,0.303563,0.308188
1,'DALYs (Disability-Adjusted Life Years)',Bahamas,Percent,0.000008,2020,0.000007,0.000007
1,'DALYs (Disability-Adjusted Life Years)',Bahamas,Rate,0.316785,2020,0.303011,0.316844
1,'DALYs (Disability-Adjusted Life Years)',Malawi,Percent,0.000003,2021,0.000003,0.000003
1,'DALYs (Disability-Adjusted Life Years)',Malawi,Rate,0.23483,2021,0.260801,0.203944
1,'DALYs (Disability-Adjusted Life Years)','Marshall Islands',Number,0.098194,2020,0.105153,0.088611
1,'DALYs (Disability-Adjusted Life Years)','Marshall Islands',Percent,0.000005,2020,0.000005,0.000004
1,'DALYs (Disability-Adjusted Life Years)','Marshall Islands',Rate,0.219045,2020,0.234569,0.197669
1,'DALYs (Disability-Adjusted Life Years)','Puerto Rico',Percent,0.000006,2021,0.000006,0.000006
1,'DALYs (Disability-Adjusted Life Years)','Puerto Rico',Rate,0.254988,2021,0.243279,0.253356
1,'DALYs (Disability-Adjusted Life Years)',Bermuda,Number,0.257673,2021,0.249276,0.252931
1,'DALYs (Disability-Adjusted Life Years)',Bermuda,Percent,0.000011,2021,0.000011,0.00001
1,'DALYs (Disability-Adjusted Life Years)',Bermuda,Rate,0.402912,2021,0.389783,0.395497
1,'DALYs (Disability-Adjusted Life Years)',Brazil,Percent,0.000006,2019,0.000006,0.000006
1,'DALYs (Disability-Adjusted Life Years)',Brazil,Rate,0.218448,2019,0.205679,0.219263
1,'DALYs (Disability-Adjusted Life Years)',Niger,Percent,0,2020,0,0
1,'DALYs (Disability-Adjusted Life Years)',Niger,Rate,0.094709,2020,0.109211,0.080936
1,'DALYs (Disability-Adjusted Life Years)',Netherlands,Percent,0.000013,2018,0.000013,0.000012
1,'DALYs (Disability-Adjusted Life Years)',Netherlands,Rate,0.422556,2018,0.404102,0.412061
1,'DALYs (Disability-Adjusted Life Years)',Philippines,Percent,0.000003,2021,0.000003,0.000003
1,'DALYs (Disability-Adjusted Life Years)',Philippines,Rate,0.151954,2021,0.148068,0.150439
1,'DALYs (Disability-Adjusted Life Years)',Togo,Percent,0.000001,2020,0.000001,0.000001
1,'DALYs (Disability-Adjusted Life Years)',Togo,Rate,0.108682,2020,0.11517,0.097364
1,'DALYs (Disability-Adjusted Life Years)','Burkina Faso',Percent,0.000001,2019,0,0.000001
1,'DALYs (Disability-Adjusted Life Years)','Burkina Faso',Rate,0.075343,2019,0.076995,0.070539
1,'DALYs (Disability-Adjusted Life Years)',Italy,Percent,0.000011,2020,0.000011,0.00001
1,'DALYs (Disability-Adjusted Life Years)',Italy,Rate,0.406191,2020,0.390242,0.394225
1,'DALYs (Disability-Adjusted Life Years)',Madagascar,Percent,0.000002,2020,0.000002,0.000002
1,'DALYs (Disability-Adjusted Life Years)',Madagascar,Rate,0.16142,2020,0.166672,0.153377
1,'DALYs (Disability-Adjusted Life Years)','Burkina Faso',Percent,0.000001,2018,0,0.000001
1,'DALYs (Disability-Adjusted Life Years)','Burkina Faso',Rate,0.075949,2018,0.077815,0.07136
1,'DALYs (Disability-Adjusted Life Years)',Yemen,Percent,0.000001,2020,0.000001,0.000001
1,'DALYs (Disability-Adjusted Life Years)',Yemen,Rate,0.07922,2020,0.085945,0.064579
1,'DALYs (Disability-Adjusted Life Years)',Rwanda,Percent,0.000003,2021,0.000003,0.000003
1,'DALYs (Disability-Adjusted Life Years)',Rwanda,Rate,0.195535,2021,0.202026,0.181184
1,'DALYs (Disability-Adjusted Life Years)',Benin,Percent,0.000001,2019,0.000001,0.000001
1,'DALYs (Disability-Adjusted Life Years)',Benin,Rate,0.088299,2019,0.093779,0.077005
1,'DALYs (Disability-Adjusted Life Years)','Solomon Islands',Percent,0.000004,2020,0.000004,0.000004
1,'DALYs (Disability-Adjusted Life Years)','Solomon Islands',Rate,0.189689,2020,0.198863,0.174683
1,'DALYs (Disability-Adjusted Life Years)',Maldives,Number,0.401887,2020,0.399896,0.385955
1,'DALYs (Disability-Adjusted Life Years)',Maldives,Percent,0.000003,2020,0.000003,0.000003
1,'DALYs (Disability-Adjusted Life Years)',Maldives,Rate,0.07992,2020,0.079524,0.076752
1,'DALYs (Disability-Adjusted Life Years)','Saint Lucia',Number,0.470711,2021,0.460045,0.459321
1,'DALYs (Disability-Adjusted Life Years)','Saint Lucia',Percent,0.000006,2021,0.000006,0.000006
1,'DALYs (Disability-Adjusted Life Years)','Saint Lucia',Rate,0.264301,2021,0.258313,0.257906
1,'DALYs (Disability-Adjusted Life Years)',Nepal,Percent,0.000002,2020,0.000002,0.000002
1,'DALYs (Disability-Adjusted Life Years)',Nepal,Rate,0.09776,2020,0.102826,0.091497
1,'DALYs (Disability-Adjusted Life Years)',Kuwait,Percent,0.000002,2021,0.000002,0.000002
1,'DALYs (Disability-Adjusted Life Years)',Kuwait,Rate,0.067035,2021,0.064062,0.06701
1,'DALYs (Disability-Adjusted Life Years)',Kiribati,Number,0.156713,2021,0.172992,0.13464
1,'DALYs (Disability-Adjusted Life Years)',Kiribati,Percent,0.000002,2021,0.000003,0.000002
1,'DALYs (Disability-Adjusted Life Years)',Kiribati,Rate,0.126494,2021,0.139633,0.108677
1,'DALYs (Disability-Adjusted Life Years)',Brazil,Percent,0.000005,2020,0.000005,0.000005
1,'DALYs (Disability-Adjusted Life Years)',Brazil,Rate,0.215966,2020,0.202451,0.217576
1,'DALYs (Disability-Adjusted Life Years)',Lebanon,Percent,0.000007,2020,0.000007,0.000007
1,'DALYs (Disability-Adjusted Life Years)',Lebanon,Rate,0.284806,2020,0.277647,0.28016
1,'DALYs (Disability-Adjusted Life Years)',Hungary,Percent,0.000011,2020,0.000011,0.000011
1,'DALYs (Disability-Adjusted Life Years)',Hungary,Rate,0.511748,2020,0.479392,0.519092
1,'DALYs (Disability-Adjusted Life Years)',Tokelau,Number,0.002069,2020,0.002199,0.001884
1,'DALYs (Disability-Adjusted Life Years)',Tokelau,Percent,0.000004,2020,0.000004,0.000003
1,'DALYs (Disability-Adjusted Life Years)',Tokelau,Rate,0.130026,2020,0.138227,0.118391
1,'DALYs (Disability-Adjusted Life Years)',Djibouti,Percent,0.000003,2020,0.000003,0.000003
1,'DALYs (Disability-Adjusted Life Years)',Djibouti,Rate,0.165915,2020,0.178619,0.149057
1,'DALYs (Disability-Adjusted Life Years)',Ecuador,Percent,0.000004,2020,0.000004,0.000004
1,'DALYs (Disability-Adjusted Life Years)',Ecuador,Rate,0.153655,2020,0.144227,0.15696
1,'DALYs (Disability-Adjusted Life Years)',Peru,Percent,0.000006,2018,0.000006,0.000006
1,'DALYs (Disability-Adjusted Life Years)',Peru,Rate,0.171495,2018,0.164482,0.166793
1,'DALYs (Disability-Adjusted Life Years)',Guinea,Percent,0.000001,2019,0.000001,0.000001
1,'DALYs (Disability-Adjusted Life Years)',Guinea,Rate,0.111495,2019,0.120333,0.099472
1,'DALYs (Disability-Adjusted Life Years)',Botswana,Percent,0.000002,2021,0.000003,0.000002
1,'DALYs (Disability-Adjusted Life Years)',Botswana,Rate,0.144852,2021,0.158685,0.125665
1,'DALYs (Disability-Adjusted Life Years)','Cook Islands',Number,0.053297,2020,0.055033,0.049812
1,'DALYs (Disability-Adjusted Life Years)','Cook Islands',Percent,0.000008,2020,0.000008,0.000007
1,'DALYs (Disability-Adjusted Life Years)','Cook Islands',Rate,0.335928,2020,0.346868,0.313958
1,'DALYs (Disability-Adjusted Life Years)',Gabon,Percent,0.000003,2019,0.000003,0.000003
1,'DALYs (Disability-Adjusted Life Years)',Gabon,Rate,0.170456,2019,0.181021,0.15468
1,'DALYs (Disability-Adjusted Life Years)',Lesotho,Percent,0.000001,2020,0.000001,0.000001
1,'DALYs (Disability-Adjusted Life Years)',Lesotho,Rate,0.143002,2020,0.164731,0.121889
1,'DALYs (Disability-Adjusted Life Years)','Cook Islands',Number,0.053429,2019,0.055281,0.049645
1,'DALYs (Disability-Adjusted Life Years)','Cook Islands',Percent,0.000008,2019,0.000008,0.000007
1,'DALYs (Disability-Adjusted Life Years)','Cook Islands',Rate,0.327198,2019,0.338542,0.304023
1,'DALYs (Disability-Adjusted Life Years)',Azerbaijan,Percent,0.000005,2021,0.000005,0.000005
1,'DALYs (Disability-Adjusted Life Years)',Azerbaijan,Rate,0.214818,2021,0.221668,0.204522
1,'DALYs (Disability-Adjusted Life Years)','United Kingdom',Percent,0.000011,2019,0.000012,0.00001
1,'DALYs (Disability-Adjusted Life Years)','United Kingdom',Rate,0.365456,2019,0.347479,0.358705
1,'DALYs (Disability-Adjusted Life Years)','Trinidad and Tobago',Percent,0.000006,2020,0.000006,0.000006
1,'DALYs (Disability-Adjusted Life Years)','Trinidad and Tobago',Rate,0.277702,2020,0.267866,0.276599
1,'DALYs (Disability-Adjusted Life Years)',Cambodia,Percent,0.000003,2021,0.000003,0.000003
1,'DALYs (Disability-Adjusted Life Years)',Cambodia,Rate,0.11954,2021,0.122724,0.11137
1,'DALYs (Disability-Adjusted Life Years)',Chad,Percent,0,2021,0,0
1,'DALYs (Disability-Adjusted Life Years)',Chad,Rate,0.094833,2021,0.105897,0.083603
1,'DALYs (Disability-Adjusted Life Years)',Liberia,Percent,0.000001,2021,0.000001,0.000001
1,'DALYs (Disability-Adjusted Life Years)',Liberia,Rate,0.159799,2021,0.175635,0.137192
1,'DALYs (Disability-Adjusted Life Years)','El Salvador',Percent,0.000005,2021,0.000005,0.000005
1,'DALYs (Disability-Adjusted Life Years)','El Salvador',Rate,0.215341,2021,0.216622,0.208101
1,'DALYs (Disability-Adjusted Life Years)',Singapore,Percent,0.000008,2021,0.000009,0.000007
1,'DALYs (Disability-Adjusted Life Years)',Singapore,Rate,0.182749,2021,0.17458,0.180341
1,'DALYs (Disability-Adjusted Life Years)',Spain,Percent,0.000011,2021,0.000011,0.00001
1,'DALYs (Disability-Adjusted Life Years)',Spain,Rate,0.344178,2021,0.328337,0.335683
1,'DALYs (Disability-Adjusted Life Years)','Dominican Republic',Percent,0.000004,2021,0.000005,0.000004
1,'DALYs (Disability-Adjusted Life Years)','Dominican Republic',Rate,0.183507,2021,0.180459,0.171418
1,'DALYs (Disability-Adjusted Life Years)',Nauru,Number,0.032345,2020,0.035366,0.028374
1,'DALYs (Disability-Adjusted Life Years)',Nauru,Percent,0.000004,2020,0.000005,0.000004
1,'DALYs (Disability-Adjusted Life Years)',Nauru,Rate,0.274264,2020,0.299875,0.240593
1,'DALYs (Disability-Adjusted Life Years)',Uzbekistan,Percent,0.000003,2020,0.000003,0.000003
1,'DALYs (Disability-Adjusted Life Years)',Uzbekistan,Rate,0.131076,2020,0.123839,0.133255
1,'DALYs (Disability-Adjusted Life Years)',Bulgaria,Percent,0.000007,2021,0.000007,0.000007
1,'DALYs (Disability-Adjusted Life Years)',Bulgaria,Rate,0.448926,2021,0.422254,0.454896
1,'DALYs (Disability-Adjusted Life Years)','Democratic Republic of the Congo',Percent,0.000002,2021,0.000002,0.000001
1,'DALYs (Disability-Adjusted Life Years)','Democratic Republic of the Congo',Rate,0.161757,2021,0.175397,0.130938
1,'DALYs (Disability-Adjusted Life Years)',Mauritania,Percent,0.000002,2019,0.000002,0.000002
1,'DALYs (Disability-Adjusted Life Years)',Mauritania,Rate,0.125582,2019,0.135486,0.108138
1,'DALYs (Disability-Adjusted Life Years)','Sri Lanka',Percent,0.000005,2020,0.000005,0.000004
1,'DALYs (Disability-Adjusted Life Years)','Sri Lanka',Rate,0.146587,2020,0.14323,0.141114
1,'DALYs (Disability-Adjusted Life Years)',Palau,Number,0.077698,2021,0.080554,0.071419
1,'DALYs (Disability-Adjusted Life Years)',Palau,Percent,0.000008,2021,0.000008,0.000007
1,'DALYs (Disability-Adjusted Life Years)',Palau,Rate,0.432708,2021,0.448614,0.397741
1,'DALYs (Disability-Adjusted Life Years)',Mali,Percent,0.000001,2019,0.000001,0.000001
1,'DALYs (Disability-Adjusted Life Years)',Mali,Rate,0.134992,2019,0.142503,0.123457
1,'DALYs (Disability-Adjusted Life Years)','United Republic of Tanzania',Percent,0.000002,2020,0.000002,0.000002
1,'DALYs (Disability-Adjusted Life Years)','United Republic of Tanzania',Rate,0.115584,2020,0.12463,0.104048
1,'DALYs (Disability-Adjusted Life Years)',Hungary,Percent,0.000012,2019,0.000012,0.000011
1,'DALYs (Disability-Adjusted Life Years)',Hungary,Rate,0.518156,2019,0.486544,0.523792
1,'DALYs (Disability-Adjusted Life Years)',Congo,Percent,0.000002,2020,0.000002,0.000001
1,'DALYs (Disability-Adjusted Life Years)',Congo,Rate,0.123404,2020,0.133977,0.110037
1,'DALYs (Disability-Adjusted Life Years)',Kyrgyzstan,Percent,0.000003,2020,0.000002,0.000002
1,'DALYs (Disability-Adjusted Life Years)',Kyrgyzstan,Rate,0.100467,2020,0.094696,0.102057
1,'DALYs (Disability-Adjusted Life Years)',Belgium,Percent,0.000011,2021,0.000011,0.00001
1,'DALYs (Disability-Adjusted Life Years)',Belgium,Rate,0.363051,2021,0.34721,0.354858
1,'DALYs (Disability-Adjusted Life Years)',Grenada,Number,0.333237,2020,0.323596,0.330638
1,'DALYs (Disability-Adjusted Life Years)',Grenada,Percent,0.000007,2020,0.000007,0.000007
1,'DALYs (Disability-Adjusted Life Years)',Grenada,Rate,0.292231,2020,0.283776,0.289952
1,'DALYs (Disability-Adjusted Life Years)',Romania,Percent,0.000008,2021,0.000007,0.000008
1,'DALYs (Disability-Adjusted Life Years)',Romania,Rate,0.422357,2021,0.39812,0.429894
1,'DALYs (Disability-Adjusted Life Years)','Democratic Peoples Republic of Korea',Percent,0.000007,2021,0.000008,0.000007
1,'DALYs (Disability-Adjusted Life Years)','Democratic Peoples Republic of Korea',Rate,0.282042,2021,0.299768,0.249838
1,'DALYs (Disability-Adjusted Life Years)',Uruguay,Percent,0.000011,2020,0.000011,0.000011
1,'DALYs (Disability-Adjusted Life Years)',Uruguay,Rate,0.398513,2020,0.375777,0.398331
1,'DALYs (Disability-Adjusted Life Years)',Monaco,Number,0.295854,2020,0.308452,0.271772
1,'DALYs (Disability-Adjusted Life Years)',Monaco,Percent,0.000019,2020,0.00002,0.000017
1,'DALYs (Disability-Adjusted Life Years)',Monaco,Rate,0.771472,2020,0.804322,0.708676
1,'DALYs (Disability-Adjusted Life Years)',Germany,Percent,0.000011,2021,0.000011,0.00001
1,'DALYs (Disability-Adjusted Life Years)',Germany,Rate,0.43067,2021,0.409886,0.423052
1,'DALYs (Disability-Adjusted Life Years)',Uganda,Percent,0.000003,2019,0.000003,0.000003
1,'DALYs (Disability-Adjusted Life Years)',Uganda,Rate,0.185284,2019,0.194026,0.165911
1,'DALYs (Disability-Adjusted Life Years)',Eritrea,Percent,0.000003,2019,0.000003,0.000003
1,'DALYs (Disability-Adjusted Life Years)',Eritrea,Rate,0.214623,2019,0.225634,0.198653
1,'DALYs (Disability-Adjusted Life Years)',Colombia,Percent,0.000005,2020,0.000005,0.000005
1,'DALYs (Disability-Adjusted Life Years)',Colombia,Rate,0.167744,2020,0.157259,0.170257
1,'DALYs (Disability-Adjusted Life Years)','New Zealand',Percent,0.00001,2020,0.00001,0.000009
1,'DALYs (Disability-Adjusted Life Years)','New Zealand',Rate,0.290545,2020,0.277733,0.284152
1,'DALYs (Disability-Adjusted Life Years)',Serbia,Percent,0.00001,2020,0.00001,0.00001
1,'DALYs (Disability-Adjusted Life Years)',Serbia,Rate,0.479511,2020,0.458023,0.477228
1,'DALYs (Disability-Adjusted Life Years)','Côte dIvoire',Percent,0.000001,2020,0.000001,0.000001
1,'DALYs (Disability-Adjusted Life Years)','Côte dIvoire',Rate,0.11728,2020,0.125919,0.10447
1,'DALYs (Disability-Adjusted Life Years)',India,Percent,0.000003,2021,0.000003,0.000003
1,'DALYs (Disability-Adjusted Life Years)',India,Rate,0.148872,2021,0.147858,0.145236
1,'DALYs (Disability-Adjusted Life Years)','Republic of Moldova',Percent,0.000006,2020,0.000005,0.000006
1,'DALYs (Disability-Adjusted Life Years)','Republic of Moldova',Rate,0.28616,2020,0.270368,0.291355
1,'DALYs (Disability-Adjusted Life Years)','Sierra Leone',Percent,0.000001,2021,0.000001,0.000001
1,'DALYs (Disability-Adjusted Life Years)','Sierra Leone',Rate,0.123845,2021,0.13038,0.111439
1,'DALYs (Disability-Adjusted Life Years)',Iraq,Percent,0.000004,2020,0.000004,0.000004
1,'DALYs (Disability-Adjusted Life Years)',Iraq,Rate,0.182319,2020,0.182445,0.174571
1,'DALYs (Disability-Adjusted Life Years)',Sudan,Percent,0.000002,2019,0.000003,0.000002
1,'DALYs (Disability-Adjusted Life Years)',Sudan,Rate,0.118718,2019,0.133295,0.099028
1,'DALYs (Disability-Adjusted Life Years)','San Marino',Number,0.098336,2021,0.100216,0.091589
1,'DALYs (Disability-Adjusted Life Years)','San Marino',Percent,0.000009,2021,0.00001,0.000008
1,'DALYs (Disability-Adjusted Life Years)','San Marino',Rate,0.280918,2021,0.286289,0.261644
1,'DALYs (Disability-Adjusted Life Years)',Mauritius,Percent,0.000005,2020,0.000005,0.000005
1,'DALYs (Disability-Adjusted Life Years)',Mauritius,Rate,0.207648,2020,0.197002,0.209844
1,'DALYs (Disability-Adjusted Life Years)','Syrian Arab Republic',Percent,0.000002,2021,0.000002,0.000002
1,'DALYs (Disability-Adjusted Life Years)','Syrian Arab Republic',Rate,0.092977,2021,0.094022,0.086227
1,'DALYs (Disability-Adjusted Life Years)',Slovakia,Percent,0.000011,2020,0.000011,0.00001
1,'DALYs (Disability-Adjusted Life Years)',Slovakia,Rate,0.42165,2020,0.408869,0.421815
1,'DALYs (Disability-Adjusted Life Years)','United Arab Emirates',Percent,0.000002,2020,0.000002,0.000002
1,'DALYs (Disability-Adjusted Life Years)','United Arab Emirates',Rate,0.045059,2020,0.048458,0.042325
1,'DALYs (Disability-Adjusted Life Years)','Brunei Darussalam',Number,0.922286,2020,0.905472,0.883673
1,'DALYs (Disability-Adjusted Life Years)','Brunei Darussalam',Percent,0.000008,2020,0.000009,0.000008
1,'DALYs (Disability-Adjusted Life Years)','Brunei Darussalam',Rate,0.206039,2020,0.202283,0.197413
1,'DALYs (Disability-Adjusted Life Years)','Antigua and Barbuda',Number,0.205601,2021,0.200187,0.202177
1,'DALYs (Disability-Adjusted Life Years)','Antigua and Barbuda',Percent,0.000006,2021,0.000006,0.000006
1,'DALYs (Disability-Adjusted Life Years)','Antigua and Barbuda',Rate,0.227257,2021,0.221273,0.223472
1,'DALYs (Disability-Adjusted Life Years)',Israel,Percent,0.000009,2020,0.000009,0.000008
1,'DALYs (Disability-Adjusted Life Years)',Israel,Rate,0.20382,2020,0.194663,0.199319
1,'DALYs (Disability-Adjusted Life Years)',Samoa,Number,0.216801,2020,0.237591,0.191309
1,'DALYs (Disability-Adjusted Life Years)',Samoa,Percent,0.000002,2020,0.000003,0.000002
1,'DALYs (Disability-Adjusted Life Years)',Samoa,Rate,0.102378,2020,0.112196,0.090341
1,'DALYs (Disability-Adjusted Life Years)','United States of America',Percent,0.000007,2021,0.000007,0.000007
1,'DALYs (Disability-Adjusted Life Years)','United States of America',Rate,0.310501,2021,0.296384,0.308031
1,'DALYs (Disability-Adjusted Life Years)',Belize,Number,0.55747,2020,0.537921,0.556818
1,'DALYs (Disability-Adjusted Life Years)',Belize,Percent,0.000004,2020,0.000004,0.000004
1,'DALYs (Disability-Adjusted Life Years)',Belize,Rate,0.139577,2020,0.134683,0.139414
1,'DALYs (Disability-Adjusted Life Years)',Seychelles,Number,0.267769,2019,0.264883,0.260588
1,'DALYs (Disability-Adjusted Life Years)',Seychelles,Percent,0.000008,2019,0.000008,0.000008
1,'DALYs (Disability-Adjusted Life Years)',Seychelles,Rate,0.259264,2019,0.25647,0.252312
1,'DALYs (Disability-Adjusted Life Years)',Panama,Percent,0.000005,2020,0.000005,0.000005
1,'DALYs (Disability-Adjusted Life Years)',Panama,Rate,0.170571,2020,0.161934,0.172399
1,'DALYs (Disability-Adjusted Life Years)',Tuvalu,Number,0.028879,2019,0.03075,0.025832
1,'DALYs (Disability-Adjusted Life Years)',Tuvalu,Percent,0.000005,2019,0.000005,0.000004
1,'DALYs (Disability-Adjusted Life Years)',Tuvalu,Rate,0.263002,2019,0.280042,0.235255
1,'DALYs (Disability-Adjusted Life Years)','Papua New Guinea',Percent,0.000002,2020,0.000002,0.000002
1,'DALYs (Disability-Adjusted Life Years)','Papua New Guinea',Rate,0.125159,2020,0.131222,0.110686
1,'DALYs (Disability-Adjusted Life Years)','South Africa',Percent,0.000002,2021,0.000002,0.000002
1,'DALYs (Disability-Adjusted Life Years)','South Africa',Rate,0.18952,2021,0.194268,0.181556
1,'DALYs (Disability-Adjusted Life Years)',Bahrain,Percent,0.000004,2021,0.000004,0.000003
1,'DALYs (Disability-Adjusted Life Years)',Bahrain,Rate,0.101076,2021,0.102558,0.094702
1,'DALYs (Disability-Adjusted Life Years)',Thailand,Percent,0.000009,2021,0.000009,0.000008
1,'DALYs (Disability-Adjusted Life Years)',Thailand,Rate,0.350204,2021,0.36152,0.340484
1,'DALYs (Disability-Adjusted Life Years)','Sao Tome and Principe',Number,0.309911,2020,0.349351,0.238254
1,'DALYs (Disability-Adjusted Life Years)','Sao Tome and Principe',Percent,0.000003,2020,0.000004,0.000002
1,'DALYs (Disability-Adjusted Life Years)','Sao Tome and Principe',Rate,0.144952,2020,0.163398,0.111436
1,'DALYs (Disability-Adjusted Life Years)','United States Virgin Islands',Number,0.28622,2020,0.280279,0.278664
1,'DALYs (Disability-Adjusted Life Years)','United States Virgin Islands',Percent,0.000007,2020,0.000007,0.000007
1,'DALYs (Disability-Adjusted Life Years)','United States Virgin Islands',Rate,0.319493,2020,0.312861,0.311058
1,'DALYs (Disability-Adjusted Life Years)','Saint Kitts and Nevis',Number,0.115739,2019,0.111755,0.11497
1,'DALYs (Disability-Adjusted Life Years)','Saint Kitts and Nevis',Percent,0.000006,2019,0.000006,0.000006
1,'DALYs (Disability-Adjusted Life Years)','Saint Kitts and Nevis',Rate,0.239067,2019,0.230836,0.237477
1,'DALYs (Disability-Adjusted Life Years)',Peru,Percent,0.000005,2021,0.000005,0.000005
1,'DALYs (Disability-Adjusted Life Years)',Peru,Rate,0.21654,2021,0.208947,0.209266
1,'DALYs (Disability-Adjusted Life Years)',Cyprus,Percent,0.00001,2020,0.00001,0.000009
1,'DALYs (Disability-Adjusted Life Years)',Cyprus,Rate,0.275657,2020,0.272518,0.268959
1,'DALYs (Disability-Adjusted Life Years)',Slovenia,Percent,0.000011,2021,0.000011,0.00001
1,'DALYs (Disability-Adjusted Life Years)',Slovenia,Rate,0.409589,2021,0.388153,0.405952
1,'DALYs (Disability-Adjusted Life Years)',Guam,Number,0.380921,2019,0.365779,0.378401
1,'DALYs (Disability-Adjusted Life Years)',Guam,Percent,0.000007,2019,0.000007,0.000007
1,'DALYs (Disability-Adjusted Life Years)',Guam,Rate,0.237013,2019,0.227591,0.235445
1,'DALYs (Disability-Adjusted Life Years)',Vanuatu,Number,0.309552,2020,0.327423,0.27875
1,'DALYs (Disability-Adjusted Life Years)',Vanuatu,Percent,0.000002,2020,0.000002,0.000002
1,'DALYs (Disability-Adjusted Life Years)',Vanuatu,Rate,0.099864,2020,0.10563,0.089927
1,'DALYs (Disability-Adjusted Life Years)',Montenegro,Percent,0.000009,2020,0.000009,0.000009
1,'DALYs (Disability-Adjusted Life Years)',Montenegro,Rate,0.390609,2020,0.383703,0.372169
1,'DALYs (Disability-Adjusted Life Years)',Greece,Percent,0.00001,2021,0.00001,0.00001
1,'DALYs (Disability-Adjusted Life Years)',Greece,Rate,0.421762,2021,0.40153,0.416289
1,'DALYs (Disability-Adjusted Life Years)',Mozambique,Percent,0,2021,0,0
1,'DALYs (Disability-Adjusted Life Years)',Mozambique,Rate,0.078529,2021,0.085025,0.069214
1,'DALYs (Disability-Adjusted Life Years)',Somalia,Percent,0,2021,0,0
1,'DALYs (Disability-Adjusted Life Years)',Somalia,Rate,0.103916,2021,0.109736,0.092086
1,'DALYs (Disability-Adjusted Life Years)','Taiwan (Province of China)',Percent,0.000012,2020,0.000012,0.000011
1,'DALYs (Disability-Adjusted Life Years)','Taiwan (Province of China)',Rate,0.369745,2020,0.351168,0.367571
1,'DALYs (Disability-Adjusted Life Years)',Turkmenistan,Percent,0.000004,2020,0.000003,0.000003
1,'DALYs (Disability-Adjusted Life Years)',Turkmenistan,Rate,0.162215,2020,0.158988,0.158707
1,'DALYs (Disability-Adjusted Life Years)',Niger,Percent,0,2019,0,0
1,'DALYs (Disability-Adjusted Life Years)',Niger,Rate,0.091654,2019,0.10602,0.078813
1,'DALYs (Disability-Adjusted Life Years)',Czechia,Percent,0.000009,2021,0.000009,0.000009
1,'DALYs (Disability-Adjusted Life Years)',Czechia,Rate,0.408451,2021,0.383485,0.412454
1,'DALYs (Disability-Adjusted Life Years)',Malta,Percent,0.000009,2020,0.00001,0.000009
1,'DALYs (Disability-Adjusted Life Years)',Malta,Rate,0.28007,2020,0.270505,0.273297
1,'DALYs (Disability-Adjusted Life Years)','United Kingdom',Percent,0.00001,2020,0.00001,0.00001
1,'DALYs (Disability-Adjusted Life Years)','United Kingdom',Rate,0.36756,2020,0.34792,0.363098
1,'DALYs (Disability-Adjusted Life Years)','Viet Nam',Percent,0.000007,2022,0.000007,0.000006
1,'DALYs (Disability-Adjusted Life Years)','Viet Nam',Rate,0.228341,2022,0.234046,0.206918
1,'DALYs (Disability-Adjusted Life Years)',Armenia,Percent,0.000006,2021,0.000006,0.000006
1,'DALYs (Disability-Adjusted Life Years)',Armenia,Rate,0.287246,2021,0.271617,0.290485
1,'DALYs (Disability-Adjusted Life Years)','Costa Rica',Percent,0.000006,2021,0.000006,0.000005
1,'DALYs (Disability-Adjusted Life Years)','Costa Rica',Rate,0.190925,2021,0.180702,0.192402
1,'DALYs (Disability-Adjusted Life Years)','Cabo Verde',Number,0.877858,2019,0.925055,0.813707
1,'DALYs (Disability-Adjusted Life Years)','Cabo Verde',Percent,0.000005,2019,0.000006,0.000005
1,'DALYs (Disability-Adjusted Life Years)','Cabo Verde',Rate,0.17311,2019,0.182417,0.16046
1,'DALYs (Disability-Adjusted Life Years)','Bolivia (Plurinational State of)',Percent,0.000005,2020,0.000005,0.000005
1,'DALYs (Disability-Adjusted Life Years)','Bolivia (Plurinational State of)',Rate,0.289691,2020,0.291823,0.279125
1,'DALYs (Disability-Adjusted Life Years)',Estonia,Percent,0.000009,2021,0.000009,0.000008
1,'DALYs (Disability-Adjusted Life Years)',Estonia,Rate,0.389496,2021,0.367392,0.388747
1,'DALYs (Disability-Adjusted Life Years)','Micronesia (Federated States of)',Number,0.217646,2021,0.222546,0.202303
1,'DALYs (Disability-Adjusted Life Years)','Micronesia (Federated States of)',Percent,0.000004,2021,0.000004,0.000004
1,'DALYs (Disability-Adjusted Life Years)','Micronesia (Federated States of)',Rate,0.210057,2021,0.214786,0.195248
1,'DALYs (Disability-Adjusted Life Years)',Chile,Percent,0.000008,2020,0.000008,0.000007
1,'DALYs (Disability-Adjusted Life Years)',Chile,Rate,0.233904,2020,0.219746,0.234898
1,'DALYs (Disability-Adjusted Life Years)',Paraguay,Percent,0.000005,2018,0.000005,0.000005
1,'DALYs (Disability-Adjusted Life Years)',Paraguay,Rate,0.191058,2018,0.18463,0.180291
1,'DALYs (Disability-Adjusted Life Years)',Comoros,Number,0.78469,2021,0.86435,0.642655
1,'DALYs (Disability-Adjusted Life Years)',Comoros,Percent,0.000002,2021,0.000002,0.000001
1,'DALYs (Disability-Adjusted Life Years)',Comoros,Rate,0.092517,2021,0.101909,0.075771
1,'DALYs (Disability-Adjusted Life Years)',Albania,Percent,0.000007,2020,0.000007,0.000007
1,'DALYs (Disability-Adjusted Life Years)',Albania,Rate,0.287779,2020,0.289564,0.282264
1,'DALYs (Disability-Adjusted Life Years)',Morocco,Percent,0.000003,2020,0.000004,0.000003
1,'DALYs (Disability-Adjusted Life Years)',Morocco,Rate,0.148312,2020,0.164473,0.130263
1,'DALYs (Disability-Adjusted Life Years)',Libya,Percent,0.000005,2021,0.000005,0.000004
1,'DALYs (Disability-Adjusted Life Years)',Libya,Rate,0.19282,2021,0.200987,0.17295
1,'DALYs (Disability-Adjusted Life Years)',Gambia,Percent,0,2021,0,0
1,'DALYs (Disability-Adjusted Life Years)',Gambia,Rate,0.072262,2021,0.079013,0.063825
1,'DALYs (Disability-Adjusted Life Years)',Guinea-Bissau,Percent,0.000001,2021,0.000001,0.000001
1,'DALYs (Disability-Adjusted Life Years)',Guinea-Bissau,Rate,0.106287,2021,0.113185,0.092091
1,'DALYs (Disability-Adjusted Life Years)','Dominican Republic',Percent,0.000004,2020,0.000004,0.000004
1,'DALYs (Disability-Adjusted Life Years)','Dominican Republic',Rate,0.177644,2020,0.175022,0.165514
1,'DALYs (Disability-Adjusted Life Years)','South Sudan',Percent,0.000002,2020,0.000002,0.000002
1,'DALYs (Disability-Adjusted Life Years)','South Sudan',Rate,0.216669,2020,0.22964,0.195354
1,'DALYs (Disability-Adjusted Life Years)',Greenland,Number,0.295621,2021,0.296702,0.286721
1,'DALYs (Disability-Adjusted Life Years)',Greenland,Percent,0.000011,2021,0.000011,0.00001
1,'DALYs (Disability-Adjusted Life Years)',Greenland,Rate,0.524006,2021,0.525922,0.50823
1,'DALYs (Disability-Adjusted Life Years)',Mauritania,Percent,0.000002,2021,0.000002,0.000002
1,'DALYs (Disability-Adjusted Life Years)',Mauritania,Rate,0.130592,2021,0.139699,0.113443
1,'DALYs (Disability-Adjusted Life Years)',Australia,Percent,0.00001,2021,0.00001,0.000009
1,'DALYs (Disability-Adjusted Life Years)',Australia,Rate,0.28116,2021,0.270131,0.27224
1,'DALYs (Disability-Adjusted Life Years)',Philippines,Percent,0.000004,2020,0.000004,0.000004
1,'DALYs (Disability-Adjusted Life Years)',Philippines,Rate,0.13596,2020,0.133107,0.133856
1,'DALYs (Disability-Adjusted Life Years)',Switzerland,Percent,0.00001,2021,0.00001,0.000009
1,'DALYs (Disability-Adjusted Life Years)',Switzerland,Rate,0.290704,2021,0.279868,0.281932
1,'DALYs (Disability-Adjusted Life Years)',Honduras,Percent,0.000002,2021,0.000002,0.000002
1,'DALYs (Disability-Adjusted Life Years)',Honduras,Rate,0.095789,2021,0.097093,0.089937
1,'DALYs (Disability-Adjusted Life Years)',Namibia,Percent,0.000002,2020,0.000002,0.000002
1,'DALYs (Disability-Adjusted Life Years)',Namibia,Rate,0.153158,2020,0.161437,0.127973
1,'DALYs (Disability-Adjusted Life Years)',Timor-Leste,Percent,0.000002,2020,0.000003,0.000002
1,'DALYs (Disability-Adjusted Life Years)',Timor-Leste,Rate,0.122861,2020,0.129645,0.111358
1,'DALYs (Disability-Adjusted Life Years)',Cameroon,Percent,0.000001,2020,0.000001,0.000001
1,'DALYs (Disability-Adjusted Life Years)',Cameroon,Rate,0.116915,2020,0.121624,0.106635
1,'DALYs (Disability-Adjusted Life Years)',Slovenia,Percent,0.000011,2022,0.000012,0.000011
1,'DALYs (Disability-Adjusted Life Years)',Slovenia,Rate,0.41817,2022,0.400025,0.409967
1,'DALYs (Disability-Adjusted Life Years)',Niue,Number,0.003601,2020,0.003753,0.003269
1,'DALYs (Disability-Adjusted Life Years)',Niue,Percent,0.000005,2020,0.000005,0.000004
1,'DALYs (Disability-Adjusted Life Years)',Niue,Rate,0.217339,2020,0.226468,0.1973
1,'DALYs (Disability-Adjusted Life Years)',Andorra,Number,0.306524,2020,0.302775,0.291068
1,'DALYs (Disability-Adjusted Life Years)',Andorra,Percent,0.000012,2020,0.000013,0.000011
1,'DALYs (Disability-Adjusted Life Years)',Andorra,Rate,0.369877,2020,0.365352,0.351225
1,'DALYs (Disability-Adjusted Life Years)','Republic of Korea',Percent,0.00001,2021,0.000011,0.000009
1,'DALYs (Disability-Adjusted Life Years)','Republic of Korea',Rate,0.273145,2021,0.273886,0.260681
1,'DALYs (Disability-Adjusted Life Years)',Nigeria,Percent,0.000001,2019,0.000001,0.000001
1,'DALYs (Disability-Adjusted Life Years)',Nigeria,Rate,0.102225,2019,0.109798,0.089369
1,'DALYs (Disability-Adjusted Life Years)',Guam,Number,0.380181,2020,0.368249,0.37782
1,'DALYs (Disability-Adjusted Life Years)',Guam,Percent,0.000006,2020,0.000006,0.000006
1,'DALYs (Disability-Adjusted Life Years)',Guam,Rate,0.237501,2020,0.230048,0.236027
1,'DALYs (Disability-Adjusted Life Years)',Haiti,Percent,0.000002,2020,0.000002,0.000002
1,'DALYs (Disability-Adjusted Life Years)',Haiti,Rate,0.171877,2020,0.180275,0.156207
1,'DALYs (Disability-Adjusted Life Years)',Palestine,Percent,0.000004,2022,0.000004,0.000004
1,'DALYs (Disability-Adjusted Life Years)',Palestine,Rate,0.100451,2022,0.098282,0.097853
1,'DALYs (Disability-Adjusted Life Years)',Bangladesh,Percent,0.000004,2020,0.000004,0.000004
1,'DALYs (Disability-Adjusted Life Years)',Bangladesh,Rate,0.1648,2020,0.173187,0.155111
1,'DALYs (Disability-Adjusted Life Years)',Zambia,Percent,0.000002,2020,0.000002,0.000002
1,'DALYs (Disability-Adjusted Life Years)',Zambia,Rate,0.146204,2020,0.154688,0.133621
1,'DALYs (Disability-Adjusted Life Years)',Kazakhstan,Percent,0.000004,2021,0.000004,0.000004
1,'DALYs (Disability-Adjusted Life Years)',Kazakhstan,Rate,0.179692,2021,0.169696,0.1804
1,'DALYs (Disability-Adjusted Life Years)',Barbados,Percent,0.000009,2021,0.000009,0.000009
1,'DALYs (Disability-Adjusted Life Years)',Barbados,Rate,0.406087,2021,0.392548,0.402829
1,'DALYs (Disability-Adjusted Life Years)','Lao Peoples Democratic Republic',Percent,0.000003,2021,0.000003,0.000003
1,'DALYs (Disability-Adjusted Life Years)','Lao Peoples Democratic Republic',Rate,0.166295,2021,0.174036,0.152839
1,'DALYs (Disability-Adjusted Life Years)',Paraguay,Percent,0.000004,2021,0.000004,0.000004
1,'DALYs (Disability-Adjusted Life Years)',Paraguay,Rate,0.20958,2021,0.203264,0.194686
1,'DALYs (Disability-Adjusted Life Years)',Ethiopia,Percent,0.000003,2020,0.000004,0.000003
1,'DALYs (Disability-Adjusted Life Years)',Ethiopia,Rate,0.208837,2020,0.222752,0.192377
1,'DALYs (Disability-Adjusted Life Years)',Ukraine,Percent,0.000006,2020,0.000006,0.000006
1,'DALYs (Disability-Adjusted Life Years)',Ukraine,Rate,0.352446,2020,0.333747,0.356269
1,'DALYs (Disability-Adjusted Life Years)','Puerto Rico',Percent,0.000007,2020,0.000007,0.000006
1,'DALYs (Disability-Adjusted Life Years)','Puerto Rico',Rate,0.264335,2020,0.251103,0.264195
1,'DALYs (Disability-Adjusted Life Years)','Equatorial Guinea',Percent,0.000002,2020,0.000002,0.000001
1,'DALYs (Disability-Adjusted Life Years)','Equatorial Guinea',Rate,0.131744,2020,0.14582,0.105345
1,'DALYs (Disability-Adjusted Life Years)',Malaysia,Percent,0.000005,2021,0.000005,0.000005
1,'DALYs (Disability-Adjusted Life Years)',Malaysia,Rate,0.16886,2021,0.163348,0.166033
1,'DALYs (Disability-Adjusted Life Years)',Luxembourg,Percent,0.00001,2020,0.00001,0.000009
1,'DALYs (Disability-Adjusted Life Years)',Luxembourg,Rate,0.269466,2020,0.258238,0.267907
1,'DALYs (Disability-Adjusted Life Years)','Bosnia and Herzegovina',Percent,0.000009,2021,0.000009,0.000008
1,'DALYs (Disability-Adjusted Life Years)','Bosnia and Herzegovina',Rate,0.4367,2021,0.422551,0.432004
1,'DALYs (Disability-Adjusted Life Years)',Tuvalu,Number,0.031461,2021,0.033773,0.027782
1,'DALYs (Disability-Adjusted Life Years)',Tuvalu,Percent,0.000004,2021,0.000005,0.000004
1,'DALYs (Disability-Adjusted Life Years)',Tuvalu,Rate,0.286081,2021,0.307104,0.252621
1,'DALYs (Disability-Adjusted Life Years)',Guyana,Percent,0.000003,2021,0.000003,0.000003
1,'DALYs (Disability-Adjusted Life Years)',Guyana,Rate,0.188514,2021,0.183503,0.186984
1,'DALYs (Disability-Adjusted Life Years)','Northern Mariana Islands',Number,0.15036,2020,0.151683,0.142792
1,'DALYs (Disability-Adjusted Life Years)','Northern Mariana Islands',Percent,0.000008,2020,0.000008,0.000007
1,'DALYs (Disability-Adjusted Life Years)','Northern Mariana Islands',Rate,0.311746,2020,0.314489,0.296054
1,'DALYs (Disability-Adjusted Life Years)','Bosnia and Herzegovina',Percent,0.00001,2022,0.00001,0.00001
1,'DALYs (Disability-Adjusted Life Years)','Bosnia and Herzegovina',Rate,0.441304,2022,0.428891,0.431244
1,'DALYs (Disability-Adjusted Life Years)','Iran (Islamic Republic of)',Percent,0.000004,2021,0.000004,0.000004
1,'DALYs (Disability-Adjusted Life Years)','Iran (Islamic Republic of)',Rate,0.147688,2021,0.146068,0.14285
1,'DALYs (Disability-Adjusted Life Years)','United States of America',Percent,0.000007,2022,0.000007,0.000007
1,'DALYs (Disability-Adjusted Life Years)','United States of America',Rate,0.311041,2022,0.298024,0.307985
1,'DALYs (Disability-Adjusted Life Years)',Kenya,Percent,0.000003,2020,0.000003,0.000003
1,'DALYs (Disability-Adjusted Life Years)',Kenya,Rate,0.149766,2020,0.155751,0.138482
1,'DALYs (Disability-Adjusted Life Years)',Japan,Percent,0.000012,2022,0.000012,0.000011
1,'DALYs (Disability-Adjusted Life Years)',Japan,Rate,0.425947,2022,0.416064,0.398354
1,'DALYs (Disability-Adjusted Life Years)',Mozambique,Percent,0.000001,2022,0,0
1,'DALYs (Disability-Adjusted Life Years)',Mozambique,Rate,0.078783,2022,0.086597,0.066355
1,'DALYs (Disability-Adjusted Life Years)',Belarus,Percent,0.000007,2021,0.000007,0.000007
1,'DALYs (Disability-Adjusted Life Years)',Belarus,Rate,0.36782,2021,0.352328,0.364597
1,'DALYs (Disability-Adjusted Life Years)',Burundi,Percent,0.000001,2019,0.000001,0.000001
1,'DALYs (Disability-Adjusted Life Years)',Burundi,Rate,0.146164,2019,0.153144,0.133298
1,'DALYs (Disability-Adjusted Life Years)',Tajikistan,Percent,0.000003,2020,0.000003,0.000002
1,'DALYs (Disability-Adjusted Life Years)',Tajikistan,Rate,0.09639,2020,0.103104,0.091067
1,'DALYs (Disability-Adjusted Life Years)',Pakistan,Percent,0.000003,2021,0.000003,0.000003
1,'DALYs (Disability-Adjusted Life Years)',Pakistan,Rate,0.175626,2021,0.178841,0.165243
1,'DALYs (Disability-Adjusted Life Years)',Ghana,Percent,0.000001,2020,0.000001,0.000001
1,'DALYs (Disability-Adjusted Life Years)',Ghana,Rate,0.10639,2020,0.108476,0.099169
1,'DALYs (Disability-Adjusted Life Years)',Japan,Percent,0.000012,2021,0.000012,0.000011
1,'DALYs (Disability-Adjusted Life Years)',Japan,Rate,0.411314,2021,0.401945,0.384743
1,'DALYs (Disability-Adjusted Life Years)',Suriname,Percent,0.000004,2021,0.000004,0.000004
1,'DALYs (Disability-Adjusted Life Years)',Suriname,Rate,0.241085,2021,0.236529,0.232718
1,'DALYs (Disability-Adjusted Life Years)','El Salvador',Percent,0.000005,2020,0.000005,0.000004
1,'DALYs (Disability-Adjusted Life Years)','El Salvador',Rate,0.203054,2020,0.201823,0.197782
1,'DALYs (Disability-Adjusted Life Years)',Liberia,Percent,0.000001,2020,0.000001,0.000001
1,'DALYs (Disability-Adjusted Life Years)',Liberia,Rate,0.142532,2020,0.155518,0.119968
1,'DALYs (Disability-Adjusted Life Years)',Ireland,Percent,0.00001,2021,0.00001,0.000009
1,'DALYs (Disability-Adjusted Life Years)',Ireland,Rate,0.264901,2021,0.253768,0.26122
1,'DALYs (Disability-Adjusted Life Years)','Viet Nam',Percent,0.000006,2021,0.000007,0.000006
1,'DALYs (Disability-Adjusted Life Years)','Viet Nam',Rate,0.214805,2021,0.221357,0.197212
1,'DALYs (Disability-Adjusted Life Years)',Canada,Percent,0.00001,2020,0.00001,0.000009
1,'DALYs (Disability-Adjusted Life Years)',Canada,Rate,0.333549,2020,0.317693,0.328249
1,'DALYs (Disability-Adjusted Life Years)','North Macedonia',Percent,0.000008,2021,0.000008,0.000008
1,'DALYs (Disability-Adjusted Life Years)','North Macedonia',Rate,0.407332,2021,0.39112,0.399043
1,'DALYs (Disability-Adjusted Life Years)','American Samoa',Number,0.133998,2021,0.141729,0.119403
1,'DALYs (Disability-Adjusted Life Years)','American Samoa',Percent,0.000006,2021,0.000006,0.000005
1,'DALYs (Disability-Adjusted Life Years)','American Samoa',Rate,0.267005,2021,0.28241,0.237922
1,'DALYs (Disability-Adjusted Life Years)',Cambodia,Percent,0.000003,2020,0.000003,0.000003
1,'DALYs (Disability-Adjusted Life Years)',Cambodia,Rate,0.122201,2020,0.128012,0.112525
1,'DALYs (Disability-Adjusted Life Years)',Bermuda,Number,0.243062,2020,0.234302,0.238533
1,'DALYs (Disability-Adjusted Life Years)',Bermuda,Percent,0.000011,2020,0.000011,0.00001
1,'DALYs (Disability-Adjusted Life Years)',Bermuda,Rate,0.37835,2020,0.364715,0.3713
1,'DALYs (Disability-Adjusted Life Years)',Zimbabwe,Percent,0.000001,2021,0.000001,0.000001
1,'DALYs (Disability-Adjusted Life Years)',Zimbabwe,Rate,0.136265,2021,0.141806,0.124645
1,'DALYs (Disability-Adjusted Life Years)',Tonga,Number,0.218702,2020,0.228379,0.199889
1,'DALYs (Disability-Adjusted Life Years)',Tonga,Percent,0.000006,2020,0.000006,0.000005
1,'DALYs (Disability-Adjusted Life Years)',Tonga,Rate,0.21022,2020,0.219521,0.192136
1,'DALYs (Disability-Adjusted Life Years)',Denmark,Percent,0.000013,2021,0.000013,0.000012
1,'DALYs (Disability-Adjusted Life Years)',Denmark,Rate,0.426069,2021,0.406955,0.419815
1,'DALYs (Disability-Adjusted Life Years)','Central African Republic',Percent,0,2020,0,0
1,'DALYs (Disability-Adjusted Life Years)','Central African Republic',Rate,0.109581,2020,0.121687,0.088223
1,'DALYs (Disability-Adjusted Life Years)',Armenia,Percent,0.000007,2022,0.000007,0.000007
1,'DALYs (Disability-Adjusted Life Years)',Armenia,Rate,0.28052,2022,0.271427,0.277938
1,'DALYs (Disability-Adjusted Life Years)','South Africa',Percent,0.000003,2020,0.000003,0.000003
1,'DALYs (Disability-Adjusted Life Years)','South Africa',Rate,0.183263,2020,0.188805,0.17124
1,'DALYs (Disability-Adjusted Life Years)','Costa Rica',Percent,0.000007,2022,0.000007,0.000006
1,'DALYs (Disability-Adjusted Life Years)','Costa Rica',Rate,0.205794,2022,0.195775,0.205694
1,'DALYs (Disability-Adjusted Life Years)',Türkiye,Percent,0.000007,2021,0.000007,0.000006
1,'DALYs (Disability-Adjusted Life Years)',Türkiye,Rate,0.239997,2021,0.236339,0.223685
1,'DALYs (Disability-Adjusted Life Years)','United Republic of Tanzania',Percent,0.000002,2019,0.000002,0.000002
1,'DALYs (Disability-Adjusted Life Years)','United Republic of Tanzania',Rate,0.118356,2019,0.125896,0.108129
1,'DALYs (Disability-Adjusted Life Years)',Madagascar,Percent,0.000002,2019,0.000002,0.000002
1,'DALYs (Disability-Adjusted Life Years)',Madagascar,Rate,0.161911,2019,0.167621,0.154176
1,'DALYs (Disability-Adjusted Life Years)',Rwanda,Percent,0.000003,2020,0.000003,0.000003
1,'DALYs (Disability-Adjusted Life Years)',Rwanda,Rate,0.185249,2020,0.19413,0.172041
1,'DALYs (Disability-Adjusted Life Years)',Kuwait,Percent,0.000002,2020,0.000003,0.000002
1,'DALYs (Disability-Adjusted Life Years)',Kuwait,Rate,0.066956,2020,0.064172,0.067019
1,'DALYs (Disability-Adjusted Life Years)',Eritrea,Percent,0.000003,2021,0.000003,0.000003
1,'DALYs (Disability-Adjusted Life Years)',Eritrea,Rate,0.21828,2021,0.229898,0.202383
1,'DALYs (Disability-Adjusted Life Years)',Norway,Percent,0.000011,2020,0.000011,0.00001
1,'DALYs (Disability-Adjusted Life Years)',Norway,Rate,0.301931,2020,0.290392,0.295356
1,'DALYs (Disability-Adjusted Life Years)',Portugal,Percent,0.000011,2022,0.000011,0.00001
1,'DALYs (Disability-Adjusted Life Years)',Portugal,Rate,0.423427,2022,0.403435,0.410819
1,'DALYs (Disability-Adjusted Life Years)',Uganda,Percent,0.000003,2021,0.000003,0.000003
1,'DALYs (Disability-Adjusted Life Years)',Uganda,Rate,0.203857,2021,0.211575,0.188618
1,'DALYs (Disability-Adjusted Life Years)','Burkina Faso',Percent,0,2021,0,0.000001
1,'DALYs (Disability-Adjusted Life Years)','Burkina Faso',Rate,0.072557,2021,0.074783,0.067168
1,'DALYs (Disability-Adjusted Life Years)',Guatemala,Percent,0.000003,2021,0.000002,0.000003
1,'DALYs (Disability-Adjusted Life Years)',Guatemala,Rate,0.129334,2021,0.12237,0.130514
1,'DALYs (Disability-Adjusted Life Years)','Côte dIvoire',Percent,0.000001,2019,0.000001,0.000001
1,'DALYs (Disability-Adjusted Life Years)','Côte dIvoire',Rate,0.115257,2019,0.12439,0.102763
1,'DALYs (Disability-Adjusted Life Years)',Afghanistan,Percent,0,2021,0,0
1,'DALYs (Disability-Adjusted Life Years)',Afghanistan,Rate,0.07842,2021,0.085526,0.064229
1,'DALYs (Disability-Adjusted Life Years)',Thailand,Percent,0.000009,2020,0.00001,0.000008
1,'DALYs (Disability-Adjusted Life Years)',Thailand,Rate,0.334961,2020,0.344614,0.325604
1,'DALYs (Disability-Adjusted Life Years)',Gabon,Percent,0.000004,2022,0.000004,0.000003
1,'DALYs (Disability-Adjusted Life Years)',Gabon,Rate,0.200638,2022,0.21494,0.183273
1,'DALYs (Disability-Adjusted Life Years)',Guinea-Bissau,Percent,0.000001,2022,0.000001,0.000001
1,'DALYs (Disability-Adjusted Life Years)',Guinea-Bissau,Rate,0.118844,2022,0.127517,0.102217
1,'DALYs (Disability-Adjusted Life Years)',Netherlands,Percent,0.000012,2021,0.000012,0.000011
1,'DALYs (Disability-Adjusted Life Years)',Netherlands,Rate,0.411565,2021,0.392741,0.404324
1,'DALYs (Disability-Adjusted Life Years)',Jamaica,Percent,0.000007,2022,0.000007,0.000007
1,'DALYs (Disability-Adjusted Life Years)',Jamaica,Rate,0.275049,2022,0.275551,0.267795
1,'DALYs (Disability-Adjusted Life Years)',Seychelles,Number,0.294488,2021,0.300181,0.276408
1,'DALYs (Disability-Adjusted Life Years)',Seychelles,Percent,0.000007,2021,0.000007,0.000007
1,'DALYs (Disability-Adjusted Life Years)',Seychelles,Rate,0.281006,2021,0.286439,0.263754
1,'DALYs (Disability-Adjusted Life Years)',Bulgaria,Percent,0.000008,2020,0.000008,0.000008
1,'DALYs (Disability-Adjusted Life Years)',Bulgaria,Rate,0.4528,2020,0.427108,0.459661
1,'DALYs (Disability-Adjusted Life Years)',Sudan,Percent,0.000003,2021,0.000003,0.000002
1,'DALYs (Disability-Adjusted Life Years)',Sudan,Rate,0.129471,2021,0.143466,0.108972
1,'DALYs (Disability-Adjusted Life Years)',Guyana,Percent,0.000003,2020,0.000003,0.000003
1,'DALYs (Disability-Adjusted Life Years)',Guyana,Rate,0.171332,2020,0.167752,0.169857
1,'DALYs (Disability-Adjusted Life Years)',Lithuania,Percent,0.000008,2021,0.000008,0.000008
1,'DALYs (Disability-Adjusted Life Years)',Lithuania,Rate,0.435184,2021,0.409707,0.440031
1,'DALYs (Disability-Adjusted Life Years)',Palestine,Percent,0.000003,2021,0.000003,0.000003
1,'DALYs (Disability-Adjusted Life Years)',Palestine,Rate,0.094564,2021,0.092112,0.092481
1,'DALYs (Disability-Adjusted Life Years)',Fiji,Percent,0.000004,2022,0.000004,0.000004
1,'DALYs (Disability-Adjusted Life Years)',Fiji,Rate,0.20867,2022,0.213307,0.197127
1,'DALYs (Disability-Adjusted Life Years)',India,Percent,0.000003,2020,0.000003,0.000003
1,'DALYs (Disability-Adjusted Life Years)',India,Rate,0.131107,2020,0.13073,0.128271
1,'DALYs (Disability-Adjusted Life Years)',China,Percent,0.00001,2022,0.000011,0.000009
1,'DALYs (Disability-Adjusted Life Years)',China,Rate,0.303484,2022,0.305254,0.286669
1,'DALYs (Disability-Adjusted Life Years)','American Samoa',Number,0.125062,2022,0.129616,0.113098
1,'DALYs (Disability-Adjusted Life Years)','American Samoa',Percent,0.000006,2022,0.000006,0.000006
1,'DALYs (Disability-Adjusted Life Years)','American Samoa',Rate,0.252413,2022,0.261605,0.228266
1,'DALYs (Disability-Adjusted Life Years)',Finland,Percent,0.00001,2020,0.00001,0.000009
1,'DALYs (Disability-Adjusted Life Years)',Finland,Rate,0.344636,2020,0.330884,0.333879
1,'DALYs (Disability-Adjusted Life Years)',Mali,Percent,0.000001,2021,0.000001,0.000001
1,'DALYs (Disability-Adjusted Life Years)',Mali,Rate,0.139409,2021,0.14514,0.129717
1,'DALYs (Disability-Adjusted Life Years)',Tokelau,Number,0.002375,2019,0.002462,0.002194
1,'DALYs (Disability-Adjusted Life Years)',Tokelau,Percent,0.000004,2019,0.000004,0.000004
1,'DALYs (Disability-Adjusted Life Years)',Tokelau,Rate,0.150217,2019,0.155735,0.138794
1,'DALYs (Disability-Adjusted Life Years)',Belarus,Percent,0.000008,2022,0.000007,0.000007
1,'DALYs (Disability-Adjusted Life Years)',Belarus,Rate,0.375609,2022,0.361853,0.370289
1,'DALYs (Disability-Adjusted Life Years)',Peru,Percent,0.000004,2020,0.000004,0.000004
1,'DALYs (Disability-Adjusted Life Years)',Peru,Rate,0.181859,2020,0.174579,0.175845
1,'DALYs (Disability-Adjusted Life Years)','Democratic Peoples Republic of Korea',Percent,0.000007,2020,0.000008,0.000006
1,'DALYs (Disability-Adjusted Life Years)','Democratic Peoples Republic of Korea',Rate,0.273533,2020,0.290268,0.246006
1,'DALYs (Disability-Adjusted Life Years)',Bhutan,Percent,0.000004,2022,0.000005,0.000004
1,'DALYs (Disability-Adjusted Life Years)',Bhutan,Rate,0.164384,2022,0.176355,0.150269
1,'DALYs (Disability-Adjusted Life Years)',Qatar,Percent,0.000002,2022,0.000002,0.000001
1,'DALYs (Disability-Adjusted Life Years)',Qatar,Rate,0.037942,2022,0.041833,0.035448
1,'DALYs (Disability-Adjusted Life Years)',Gabon,Percent,0.000003,2021,0.000003,0.000003
1,'DALYs (Disability-Adjusted Life Years)',Gabon,Rate,0.179643,2021,0.191235,0.16485
1,'DALYs (Disability-Adjusted Life Years)',France,Percent,0.000012,2022,0.000012,0.000011
1,'DALYs (Disability-Adjusted Life Years)',France,Rate,0.401526,2022,0.385131,0.391575
1,'DALYs (Disability-Adjusted Life Years)',Malawi,Percent,0.000003,2020,0.000003,0.000003
1,'DALYs (Disability-Adjusted Life Years)',Malawi,Rate,0.200899,2020,0.22633,0.172934
1,'DALYs (Disability-Adjusted Life Years)','Saudi Arabia',Percent,0.000003,2021,0.000003,0.000002
1,'DALYs (Disability-Adjusted Life Years)','Saudi Arabia',Rate,0.08317,2021,0.093442,0.078573
1,'DALYs (Disability-Adjusted Life Years)',Algeria,Percent,0.000003,2022,0.000004,0.000003
1,'DALYs (Disability-Adjusted Life Years)',Algeria,Rate,0.115349,2022,0.127226,0.097043
1,'DALYs (Disability-Adjusted Life Years)',Djibouti,Percent,0.000003,2019,0.000003,0.000003
1,'DALYs (Disability-Adjusted Life Years)',Djibouti,Rate,0.16789,2019,0.177993,0.153221
1,'DALYs (Disability-Adjusted Life Years)',Jamaica,Percent,0.000007,2021,0.000007,0.000007
1,'DALYs (Disability-Adjusted Life Years)',Jamaica,Rate,0.285758,2021,0.280742,0.27941
1,'DALYs (Disability-Adjusted Life Years)',Maldives,Number,0.4398,2023,0.441795,0.418651
1,'DALYs (Disability-Adjusted Life Years)',Maldives,Percent,0.000003,2023,0.000003,0.000003
1,'DALYs (Disability-Adjusted Life Years)',Maldives,Rate,0.081051,2023,0.081419,0.077154
1,'DALYs (Disability-Adjusted Life Years)',Fiji,Percent,0.000004,2021,0.000004,0.000004
1,'DALYs (Disability-Adjusted Life Years)',Fiji,Rate,0.200488,2021,0.20222,0.192176
1,'DALYs (Disability-Adjusted Life Years)',Chad,Percent,0,2020,0,0
1,'DALYs (Disability-Adjusted Life Years)',Chad,Rate,0.096419,2020,0.105524,0.084975
1,'DALYs (Disability-Adjusted Life Years)','Republic of Korea',Percent,0.00001,2022,0.000011,0.000009
1,'DALYs (Disability-Adjusted Life Years)','Republic of Korea',Rate,0.292354,2022,0.29216,0.281446
1,'DALYs (Disability-Adjusted Life Years)',Croatia,Percent,0.00001,2021,0.00001,0.00001
1,'DALYs (Disability-Adjusted Life Years)',Croatia,Rate,0.480026,2021,0.451548,0.482988
1,'DALYs (Disability-Adjusted Life Years)',Zimbabwe,Percent,0.000001,2022,0.000001,0.000001
1,'DALYs (Disability-Adjusted Life Years)',Zimbabwe,Rate,0.116496,2022,0.127423,0.104563
1,'DALYs (Disability-Adjusted Life Years)',Palau,Number,0.070593,2020,0.07178,0.066536
1,'DALYs (Disability-Adjusted Life Years)',Palau,Percent,0.000008,2020,0.000008,0.000007
1,'DALYs (Disability-Adjusted Life Years)',Palau,Rate,0.392269,2020,0.398863,0.369723
1,'DALYs (Disability-Adjusted Life Years)','San Marino',Number,0.094757,2020,0.095958,0.08896
1,'DALYs (Disability-Adjusted Life Years)','San Marino',Percent,0.000009,2020,0.000009,0.000008
1,'DALYs (Disability-Adjusted Life Years)','San Marino',Rate,0.272482,2020,0.275939,0.255815
1,'DALYs (Disability-Adjusted Life Years)',Oman,Percent,0.000002,2020,0.000002,0.000002
1,'DALYs (Disability-Adjusted Life Years)',Oman,Rate,0.064307,2020,0.065662,0.059761
1,'DALYs (Disability-Adjusted Life Years)',Benin,Percent,0.000001,2021,0.000001,0.000001
1,'DALYs (Disability-Adjusted Life Years)',Benin,Rate,0.090629,2021,0.099185,0.077818
1,'DALYs (Disability-Adjusted Life Years)',Botswana,Percent,0.000002,2020,0.000003,0.000002
1,'DALYs (Disability-Adjusted Life Years)',Botswana,Rate,0.131836,2020,0.14738,0.110206
1,'DALYs (Disability-Adjusted Life Years)',Indonesia,Percent,0.000005,2022,0.000005,0.000004
1,'DALYs (Disability-Adjusted Life Years)',Indonesia,Rate,0.187,2022,0.192572,0.172608
1,'DALYs (Disability-Adjusted Life Years)',Guinea,Percent,0.000001,2021,0.000001,0.000001
1,'DALYs (Disability-Adjusted Life Years)',Guinea,Rate,0.113809,2021,0.124322,0.101534
1,'DALYs (Disability-Adjusted Life Years)',Romania,Percent,0.000009,2020,0.000008,0.000008
1,'DALYs (Disability-Adjusted Life Years)',Romania,Rate,0.42664,2020,0.401836,0.434475
1,'DALYs (Disability-Adjusted Life Years)','Democratic Republic of the Congo',Percent,0.000002,2020,0.000002,0.000001
1,'DALYs (Disability-Adjusted Life Years)','Democratic Republic of the Congo',Rate,0.159061,2020,0.174875,0.127974
1,'DALYs (Disability-Adjusted Life Years)',Iraq,Percent,0.000005,2023,0.000005,0.000005
1,'DALYs (Disability-Adjusted Life Years)',Iraq,Rate,0.192441,2023,0.198454,0.176378
1,'DALYs (Disability-Adjusted Life Years)',Seychelles,Number,0.290378,2022,0.290296,0.276972
1,'DALYs (Disability-Adjusted Life Years)',Seychelles,Percent,0.000008,2022,0.000008,0.000007
1,'DALYs (Disability-Adjusted Life Years)',Seychelles,Rate,0.275142,2022,0.275065,0.26244
1,'DALYs (Disability-Adjusted Life Years)',Indonesia,Percent,0.000004,2021,0.000004,0.000004
1,'DALYs (Disability-Adjusted Life Years)',Indonesia,Rate,0.200597,2021,0.20518,0.188139
1,'DALYs (Disability-Adjusted Life Years)','Saint Kitts and Nevis',Number,0.123414,2022,0.119984,0.122832
1,'DALYs (Disability-Adjusted Life Years)','Saint Kitts and Nevis',Percent,0.000006,2022,0.000006,0.000006
1,'DALYs (Disability-Adjusted Life Years)','Saint Kitts and Nevis',Rate,0.256557,2022,0.249425,0.255346
1,'DALYs (Disability-Adjusted Life Years)',Algeria,Percent,0.000003,2021,0.000003,0.000002
1,'DALYs (Disability-Adjusted Life Years)',Algeria,Rate,0.110071,2021,0.119862,0.094702
1,'DALYs (Disability-Adjusted Life Years)',Iceland,Number,0.992717,2021,0.96082,0.973518
1,'DALYs (Disability-Adjusted Life Years)',Iceland,Percent,0.00001,2021,0.00001,0.000009
1,'DALYs (Disability-Adjusted Life Years)',Iceland,Rate,0.268612,2021,0.259981,0.263417
1,'DALYs (Disability-Adjusted Life Years)',Senegal,Percent,0.000001,2019,0.000001,0.000001
1,'DALYs (Disability-Adjusted Life Years)',Senegal,Rate,0.087508,2019,0.090004,0.080985
1,'DALYs (Disability-Adjusted Life Years)','Cabo Verde',Number,0.862235,2021,0.914024,0.775817
1,'DALYs (Disability-Adjusted Life Years)','Cabo Verde',Percent,0.000004,2021,0.000005,0.000004
1,'DALYs (Disability-Adjusted Life Years)','Cabo Verde',Rate,0.172201,2021,0.182544,0.154942
1,'DALYs (Disability-Adjusted Life Years)',Cuba,Percent,0.000008,2021,0.000008,0.000008
1,'DALYs (Disability-Adjusted Life Years)',Cuba,Rate,0.407359,2021,0.383538,0.413783
1,'DALYs (Disability-Adjusted Life Years)',Mongolia,Percent,0.000008,2021,0.000008,0.000008
1,'DALYs (Disability-Adjusted Life Years)',Mongolia,Rate,0.285564,2021,0.282266,0.278904
1,'DALYs (Disability-Adjusted Life Years)',France,Percent,0.000011,2021,0.000012,0.000011
1,'DALYs (Disability-Adjusted Life Years)',France,Rate,0.368988,2021,0.35211,0.360695
1,'DALYs (Disability-Adjusted Life Years)',Libya,Percent,0.000004,2020,0.000005,0.000004
1,'DALYs (Disability-Adjusted Life Years)',Libya,Rate,0.173945,2020,0.183214,0.156073
1,'DALYs (Disability-Adjusted Life Years)','Cook Islands',Number,0.05738,2021,0.059951,0.052364
1,'DALYs (Disability-Adjusted Life Years)','Cook Islands',Percent,0.000008,2021,0.000009,0.000007
1,'DALYs (Disability-Adjusted Life Years)','Cook Islands',Rate,0.371774,2021,0.388435,0.339275
1,'DALYs (Disability-Adjusted Life Years)',Paraguay,Percent,0.000005,2020,0.000005,0.000005
1,'DALYs (Disability-Adjusted Life Years)',Paraguay,Rate,0.201018,2020,0.193807,0.18979
1,'DALYs (Disability-Adjusted Life Years)',Myanmar,Percent,0.000003,2021,0.000003,0.000003
1,'DALYs (Disability-Adjusted Life Years)',Myanmar,Rate,0.201078,2021,0.209027,0.186121
1,'DALYs (Disability-Adjusted Life Years)',Nauru,Number,0.029901,2019,0.032479,0.026466
1,'DALYs (Disability-Adjusted Life Years)',Nauru,Percent,0.000004,2019,0.000005,0.000004
1,'DALYs (Disability-Adjusted Life Years)',Nauru,Rate,0.257625,2019,0.279839,0.228031
1,'DALYs (Disability-Adjusted Life Years)',Bahamas,Percent,0.000008,2021,0.000007,0.000007
1,'DALYs (Disability-Adjusted Life Years)',Bahamas,Rate,0.397888,2021,0.381966,0.396344
1,'DALYs (Disability-Adjusted Life Years)',Bhutan,Percent,0.000004,2021,0.000004,0.000004
1,'DALYs (Disability-Adjusted Life Years)',Bhutan,Rate,0.157179,2021,0.165704,0.1406
1,'DALYs (Disability-Adjusted Life Years)',Jordan,Percent,0.000004,2021,0.000004,0.000004
1,'DALYs (Disability-Adjusted Life Years)',Jordan,Rate,0.126222,2021,0.123447,0.122701
1,'DALYs (Disability-Adjusted Life Years)',Lesotho,Percent,0.000001,2019,0.000001,0.000001
1,'DALYs (Disability-Adjusted Life Years)',Lesotho,Rate,0.146541,2019,0.170958,0.123691
1,'DALYs (Disability-Adjusted Life Years)',Estonia,Percent,0.00001,2020,0.000009,0.000009
1,'DALYs (Disability-Adjusted Life Years)',Estonia,Rate,0.385943,2020,0.365191,0.385101
1,'DALYs (Disability-Adjusted Life Years)',Nicaragua,Percent,0.000004,2021,0.000004,0.000004
1,'DALYs (Disability-Adjusted Life Years)',Nicaragua,Rate,0.144825,2021,0.144413,0.141764
1,'DALYs (Disability-Adjusted Life Years)',Samoa,Number,0.251777,2023,0.278875,0.211694
1,'DALYs (Disability-Adjusted Life Years)',Samoa,Percent,0.000003,2023,0.000003,0.000002
1,'DALYs (Disability-Adjusted Life Years)',Samoa,Rate,0.114854,2023,0.127215,0.096569
1,'DALYs (Disability-Adjusted Life Years)',Ghana,Percent,0.000001,2019,0.000001,0.000001
1,'DALYs (Disability-Adjusted Life Years)',Ghana,Rate,0.102964,2019,0.105326,0.094424
1,'DALYs (Disability-Adjusted Life Years)',Croatia,Percent,0.000011,2022,0.00001,0.00001
1,'DALYs (Disability-Adjusted Life Years)',Croatia,Rate,0.484387,2022,0.458018,0.485048
1,'DALYs (Disability-Adjusted Life Years)',Yemen,Percent,0.000001,2021,0.000001,0.000001
1,'DALYs (Disability-Adjusted Life Years)',Yemen,Rate,0.079312,2021,0.086819,0.064223
1,'DALYs (Disability-Adjusted Life Years)','Sao Tome and Principe',Number,0.330306,2023,0.35943,0.291004
1,'DALYs (Disability-Adjusted Life Years)','Sao Tome and Principe',Percent,0.000004,2023,0.000004,0.000003
1,'DALYs (Disability-Adjusted Life Years)','Sao Tome and Principe',Rate,0.148786,2023,0.161905,0.131082
1,'DALYs (Disability-Adjusted Life Years)','North Macedonia',Percent,0.00001,2022,0.00001,0.000009
1,'DALYs (Disability-Adjusted Life Years)','North Macedonia',Rate,0.411257,2022,0.39876,0.399734
1,'DALYs (Disability-Adjusted Life Years)',Mexico,Percent,0.000003,2021,0.000003,0.000003
1,'DALYs (Disability-Adjusted Life Years)',Mexico,Rate,0.152642,2021,0.142902,0.156108
1,'DALYs (Disability-Adjusted Life Years)',Azerbaijan,Percent,0.000005,2020,0.000005,0.000005
1,'DALYs (Disability-Adjusted Life Years)',Azerbaijan,Rate,0.224594,2020,0.232132,0.212425
1,'DALYs (Disability-Adjusted Life Years)',Spain,Percent,0.000011,2020,0.000011,0.00001
1,'DALYs (Disability-Adjusted Life Years)',Spain,Rate,0.351414,2020,0.334377,0.34507
1,'DALYs (Disability-Adjusted Life Years)',Myanmar,Percent,0.000003,2022,0.000003,0.000003
1,'DALYs (Disability-Adjusted Life Years)',Myanmar,Rate,0.196036,2022,0.203985,0.177664
1,'DALYs (Disability-Adjusted Life Years)',Guatemala,Percent,0.000003,2022,0.000003,0.000003
1,'DALYs (Disability-Adjusted Life Years)',Guatemala,Rate,0.131012,2022,0.125212,0.130656
1,'DALYs (Disability-Adjusted Life Years)',Sweden,Percent,0.00001,2022,0.00001,0.000009
1,'DALYs (Disability-Adjusted Life Years)',Sweden,Rate,0.309077,2022,0.29814,0.29839
1,'DALYs (Disability-Adjusted Life Years)',Israel,Percent,0.000009,2023,0.000009,0.000008
1,'DALYs (Disability-Adjusted Life Years)',Israel,Rate,0.206814,2023,0.197517,0.201175
1,'DALYs (Disability-Adjusted Life Years)',Eswatini,Percent,0.000002,2020,0.000003,0.000002
1,'DALYs (Disability-Adjusted Life Years)',Eswatini,Rate,0.208382,2020,0.253071,0.162824
1,'DALYs (Disability-Adjusted Life Years)',Mauritania,Percent,0.000002,2020,0.000002,0.000002
1,'DALYs (Disability-Adjusted Life Years)',Mauritania,Rate,0.122454,2020,0.132296,0.10628
1,'DALYs (Disability-Adjusted Life Years)',Andorra,Number,0.344703,2023,0.34331,0.325843
1,'DALYs (Disability-Adjusted Life Years)',Andorra,Percent,0.000013,2023,0.000013,0.000012
1,'DALYs (Disability-Adjusted Life Years)',Andorra,Rate,0.381397,2023,0.379855,0.360529
1,'DALYs (Disability-Adjusted Life Years)','Papua New Guinea',Percent,0.000003,2023,0.000003,0.000002
1,'DALYs (Disability-Adjusted Life Years)','Papua New Guinea',Rate,0.140511,2023,0.15176,0.124342
1,'DALYs (Disability-Adjusted Life Years)',Latvia,Percent,0.000008,2021,0.000008,0.000008
1,'DALYs (Disability-Adjusted Life Years)',Latvia,Rate,0.447715,2021,0.422564,0.452688
1,'DALYs (Disability-Adjusted Life Years)',Burundi,Percent,0.000002,2022,0.000002,0.000002
1,'DALYs (Disability-Adjusted Life Years)',Burundi,Rate,0.158387,2022,0.171422,0.142313
1,'DALYs (Disability-Adjusted Life Years)',Belgium,Percent,0.00001,2020,0.00001,0.000009
1,'DALYs (Disability-Adjusted Life Years)',Belgium,Rate,0.362192,2020,0.345875,0.355831
1,'DALYs (Disability-Adjusted Life Years)','Marshall Islands',Number,0.106049,2021,0.113959,0.092964
1,'DALYs (Disability-Adjusted Life Years)','Marshall Islands',Percent,0.000005,2021,0.000005,0.000004
1,'DALYs (Disability-Adjusted Life Years)','Marshall Islands',Rate,0.242734,2021,0.26084,0.212784
1,'DALYs (Disability-Adjusted Life Years)',Portugal,Percent,0.000011,2021,0.000011,0.00001
1,'DALYs (Disability-Adjusted Life Years)',Portugal,Rate,0.39691,2021,0.378398,0.389072
1,'DALYs (Disability-Adjusted Life Years)',Poland,Percent,0.00001,2021,0.000009,0.000009
1,'DALYs (Disability-Adjusted Life Years)',Poland,Rate,0.432137,2021,0.405734,0.437334
1,'DALYs (Disability-Adjusted Life Years)','United Republic of Tanzania',Percent,0.000002,2022,0.000002,0.000002
1,'DALYs (Disability-Adjusted Life Years)','United Republic of Tanzania',Rate,0.110075,2022,0.119178,0.098512
1,'DALYs (Disability-Adjusted Life Years)','Saint Lucia',Number,0.438233,2020,0.427505,0.435158
1,'DALYs (Disability-Adjusted Life Years)','Saint Lucia',Percent,0.000007,2020,0.000007,0.000006
1,'DALYs (Disability-Adjusted Life Years)','Saint Lucia',Rate,0.246634,2020,0.240596,0.244904
1,'DALYs (Disability-Adjusted Life Years)',Italy,Percent,0.000011,2021,0.000011,0.00001
1,'DALYs (Disability-Adjusted Life Years)',Italy,Rate,0.399096,2021,0.384184,0.386298
1,'DALYs (Disability-Adjusted Life Years)','Republic of Moldova',Percent,0.000007,2023,0.000007,0.000007
1,'DALYs (Disability-Adjusted Life Years)','Republic of Moldova',Rate,0.309355,2023,0.298978,0.306962
1,'DALYs (Disability-Adjusted Life Years)','Russian Federation',Percent,0.000006,2021,0.000005,0.000006
1,'DALYs (Disability-Adjusted Life Years)','Russian Federation',Rate,0.344753,2021,0.323887,0.350342
1,'DALYs (Disability-Adjusted Life Years)','New Zealand',Percent,0.00001,2021,0.00001,0.000009
1,'DALYs (Disability-Adjusted Life Years)','New Zealand',Rate,0.299494,2021,0.287197,0.291213
1,'DALYs (Disability-Adjusted Life Years)','Saint Vincent and the Grenadines',Number,0.325901,2022,0.325441,0.316338
1,'DALYs (Disability-Adjusted Life Years)','Saint Vincent and the Grenadines',Percent,0.000007,2022,0.000007,0.000006
1,'DALYs (Disability-Adjusted Life Years)','Saint Vincent and the Grenadines',Rate,0.28071,2022,0.280314,0.272473
1,'DALYs (Disability-Adjusted Life Years)',Belize,Number,0.589637,2023,0.577241,0.574372
1,'DALYs (Disability-Adjusted Life Years)',Belize,Percent,0.000004,2023,0.000004,0.000004
1,'DALYs (Disability-Adjusted Life Years)',Belize,Rate,0.14255,2023,0.139553,0.13886
1,'DALYs (Disability-Adjusted Life Years)','Cook Islands',Number,0.054658,2022,0.056339,0.050522
1,'DALYs (Disability-Adjusted Life Years)','Cook Islands',Percent,0.000009,2022,0.000009,0.000008
1,'DALYs (Disability-Adjusted Life Years)','Cook Islands',Rate,0.363111,2022,0.374275,0.335632
1,'DALYs (Disability-Adjusted Life Years)','Saudi Arabia',Percent,0.000003,2022,0.000003,0.000003
1,'DALYs (Disability-Adjusted Life Years)','Saudi Arabia',Rate,0.084378,2022,0.094446,0.078962
1,'DALYs (Disability-Adjusted Life Years)',Honduras,Percent,0.000002,2020,0.000002,0.000002
1,'DALYs (Disability-Adjusted Life Years)',Honduras,Rate,0.088791,2020,0.090498,0.083149
1,'DALYs (Disability-Adjusted Life Years)',Tunisia,Percent,0.000004,2021,0.000004,0.000004
1,'DALYs (Disability-Adjusted Life Years)',Tunisia,Rate,0.202338,2021,0.206568,0.196284
1,'DALYs (Disability-Adjusted Life Years)','Antigua and Barbuda',Number,0.211248,2020,0.205016,0.206767
1,'DALYs (Disability-Adjusted Life Years)','Antigua and Barbuda',Percent,0.000007,2020,0.000007,0.000006
1,'DALYs (Disability-Adjusted Life Years)','Antigua and Barbuda',Rate,0.233918,2020,0.227018,0.228956
1,'DALYs (Disability-Adjusted Life Years)',Latvia,Percent,0.000009,2022,0.000009,0.000009
1,'DALYs (Disability-Adjusted Life Years)',Latvia,Rate,0.457823,2022,0.436988,0.459519
1,'DALYs (Disability-Adjusted Life Years)',Niger,Percent,0,2021,0,0
1,'DALYs (Disability-Adjusted Life Years)',Niger,Rate,0.097049,2021,0.113059,0.083903
1,'DALYs (Disability-Adjusted Life Years)',Nauru,Number,0.037487,2021,0.041271,0.032895
1,'DALYs (Disability-Adjusted Life Years)',Nauru,Percent,0.000005,2021,0.000005,0.000004
1,'DALYs (Disability-Adjusted Life Years)',Nauru,Rate,0.313172,2021,0.344785,0.274808
1,'DALYs (Disability-Adjusted Life Years)',Greenland,Number,0.288843,2020,0.286832,0.280714
1,'DALYs (Disability-Adjusted Life Years)',Greenland,Percent,0.000011,2020,0.000011,0.00001
1,'DALYs (Disability-Adjusted Life Years)',Greenland,Rate,0.515017,2020,0.51143,0.500523
1,'DALYs (Disability-Adjusted Life Years)','United Arab Emirates',Percent,0.000003,2023,0.000003,0.000002
1,'DALYs (Disability-Adjusted Life Years)','United Arab Emirates',Rate,0.063188,2023,0.068244,0.058112
1,'DALYs (Disability-Adjusted Life Years)',Pakistan,Percent,0.000003,2020,0.000003,0.000003
1,'DALYs (Disability-Adjusted Life Years)',Pakistan,Rate,0.163393,2020,0.166027,0.15111
1,'DALYs (Disability-Adjusted Life Years)',Nepal,Percent,0.000002,2022,0.000003,0.000002
1,'DALYs (Disability-Adjusted Life Years)',Nepal,Rate,0.107554,2022,0.113418,0.099166
1,'DALYs (Disability-Adjusted Life Years)','Marshall Islands',Number,0.103705,2022,0.110905,0.093505
1,'DALYs (Disability-Adjusted Life Years)','Marshall Islands',Percent,0.000005,2022,0.000005,0.000005
1,'DALYs (Disability-Adjusted Life Years)','Marshall Islands',Rate,0.243251,2022,0.260139,0.219326
1,'DALYs (Disability-Adjusted Life Years)',Nigeria,Percent,0.000001,2021,0.000001,0.000001
1,'DALYs (Disability-Adjusted Life Years)',Nigeria,Rate,0.106034,2021,0.113528,0.092312
1,'DALYs (Disability-Adjusted Life Years)','Saint Vincent and the Grenadines',Number,0.322152,2021,0.313424,0.317777
1,'DALYs (Disability-Adjusted Life Years)','Saint Vincent and the Grenadines',Percent,0.000007,2021,0.000006,0.000006
1,'DALYs (Disability-Adjusted Life Years)','Saint Vincent and the Grenadines',Rate,0.277477,2021,0.269959,0.273709
1,'DALYs (Disability-Adjusted Life Years)',Mali,Percent,0.000001,2022,0.000001,0.000001
1,'DALYs (Disability-Adjusted Life Years)',Mali,Rate,0.146998,2022,0.154052,0.133363
1,'DALYs (Disability-Adjusted Life Years)',Monaco,Number,0.331603,2023,0.354433,0.291406
1,'DALYs (Disability-Adjusted Life Years)',Monaco,Percent,0.000021,2023,0.000023,0.000018
1,'DALYs (Disability-Adjusted Life Years)',Monaco,Rate,0.852559,2023,0.911256,0.749211
1,'DALYs (Disability-Adjusted Life Years)','Solomon Islands',Percent,0.000004,2021,0.000004,0.000004
1,'DALYs (Disability-Adjusted Life Years)','Solomon Islands',Rate,0.19379,2021,0.200651,0.17961
1,'DALYs (Disability-Adjusted Life Years)','Sierra Leone',Percent,0.000001,2020,0.000001,0.000001
1,'DALYs (Disability-Adjusted Life Years)','Sierra Leone',Rate,0.121242,2020,0.128611,0.109843
1,'DALYs (Disability-Adjusted Life Years)',Bahamas,Percent,0.000008,2022,0.000008,0.000007
1,'DALYs (Disability-Adjusted Life Years)',Bahamas,Rate,0.324604,2022,0.312581,0.32225
1,'DALYs (Disability-Adjusted Life Years)',Hungary,Percent,0.000011,2022,0.00001,0.00001
1,'DALYs (Disability-Adjusted Life Years)',Hungary,Rate,0.494857,2022,0.465833,0.501673
1,'DALYs (Disability-Adjusted Life Years)',Georgia,Percent,0.000007,2021,0.000007,0.000007
1,'DALYs (Disability-Adjusted Life Years)',Georgia,Rate,0.392288,2021,0.372138,0.393272
1,'DALYs (Disability-Adjusted Life Years)',Qatar,Percent,0.000001,2021,0.000002,0.000001
1,'DALYs (Disability-Adjusted Life Years)',Qatar,Rate,0.036176,2021,0.038623,0.034228
1,'DALYs (Disability-Adjusted Life Years)',Tokelau,Number,0.002414,2022,0.002594,0.002155
1,'DALYs (Disability-Adjusted Life Years)',Tokelau,Percent,0.000004,2022,0.000004,0.000003
1,'DALYs (Disability-Adjusted Life Years)',Tokelau,Rate,0.150097,2022,0.161323,0.134017
1,'DALYs (Disability-Adjusted Life Years)',Singapore,Percent,0.000008,2020,0.000009,0.000007
1,'DALYs (Disability-Adjusted Life Years)',Singapore,Rate,0.17821,2020,0.169792,0.175101
1,'DALYs (Disability-Adjusted Life Years)',Georgia,Percent,0.000008,2022,0.000008,0.000008
1,'DALYs (Disability-Adjusted Life Years)',Georgia,Rate,0.384108,2022,0.371619,0.378346
1,'DALYs (Disability-Adjusted Life Years)','Lao Peoples Democratic Republic',Percent,0.000003,2020,0.000003,0.000003
1,'DALYs (Disability-Adjusted Life Years)','Lao Peoples Democratic Republic',Rate,0.162029,2020,0.168265,0.150494
1,'DALYs (Disability-Adjusted Life Years)','Taiwan (Province of China)',Percent,0.000012,2022,0.000012,0.000011
1,'DALYs (Disability-Adjusted Life Years)','Taiwan (Province of China)',Rate,0.401289,2022,0.381921,0.402071
1,'DALYs (Disability-Adjusted Life Years)',Burundi,Percent,0.000001,2021,0.000002,0.000001
1,'DALYs (Disability-Adjusted Life Years)',Burundi,Rate,0.15711,2021,0.168881,0.138874
1,'DALYs (Disability-Adjusted Life Years)',Nicaragua,Percent,0.000004,2022,0.000004,0.000004
1,'DALYs (Disability-Adjusted Life Years)',Nicaragua,Rate,0.137691,2022,0.141201,0.133172
1,'DALYs (Disability-Adjusted Life Years)',Namibia,Percent,0.000002,2019,0.000002,0.000002
1,'DALYs (Disability-Adjusted Life Years)',Namibia,Rate,0.151452,2019,0.157296,0.125256
1,'DALYs (Disability-Adjusted Life Years)',Bahrain,Percent,0.000004,2020,0.000004,0.000003
1,'DALYs (Disability-Adjusted Life Years)',Bahrain,Rate,0.094634,2020,0.094235,0.089049
1,'DALYs (Disability-Adjusted Life Years)',Zambia,Percent,0.000002,2023,0.000003,0.000002
1,'DALYs (Disability-Adjusted Life Years)',Zambia,Rate,0.164752,2023,0.179048,0.145115
1,'DALYs (Disability-Adjusted Life Years)',Dominica,Number,0.228259,2021,0.228768,0.216943
1,'DALYs (Disability-Adjusted Life Years)',Dominica,Percent,0.000008,2021,0.000008,0.000007
1,'DALYs (Disability-Adjusted Life Years)',Dominica,Rate,0.328,2021,0.32873,0.311738
1,'DALYs (Disability-Adjusted Life Years)',China,Percent,0.00001,2021,0.00001,0.000009
1,'DALYs (Disability-Adjusted Life Years)',China,Rate,0.278122,2021,0.27557,0.272766
1,'DALYs (Disability-Adjusted Life Years)',Ethiopia,Percent,0.000004,2023,0.000005,0.000004
1,'DALYs (Disability-Adjusted Life Years)',Ethiopia,Rate,0.252806,2023,0.265041,0.233799
1,'DALYs (Disability-Adjusted Life Years)','Sri Lanka',Percent,0.000005,2022,0.000006,0.000005
1,'DALYs (Disability-Adjusted Life Years)','Sri Lanka',Rate,0.191538,2022,0.188595,0.184304
1,'DALYs (Disability-Adjusted Life Years)',Argentina,Percent,0.000009,2022,0.000009,0.000008
1,'DALYs (Disability-Adjusted Life Years)',Argentina,Rate,0.299344,2022,0.282272,0.302996
1,'DALYs (Disability-Adjusted Life Years)',Chile,Percent,0.000008,2023,0.000008,0.000007
1,'DALYs (Disability-Adjusted Life Years)',Chile,Rate,0.248592,2023,0.236394,0.245285
1,'DALYs (Disability-Adjusted Life Years)',Philippines,Percent,0.000004,2023,0.000004,0.000004
1,'DALYs (Disability-Adjusted Life Years)',Philippines,Rate,0.144907,2023,0.14271,0.141601
1,'DALYs (Disability-Adjusted Life Years)',Benin,Percent,0.000001,2022,0.000001,0.000001
1,'DALYs (Disability-Adjusted Life Years)',Benin,Rate,0.090405,2022,0.099912,0.077627
1,'DALYs (Disability-Adjusted Life Years)',Mongolia,Percent,0.000009,2022,0.000009,0.000008
1,'DALYs (Disability-Adjusted Life Years)',Mongolia,Rate,0.291106,2022,0.287989,0.277191
1,'DALYs (Disability-Adjusted Life Years)',Netherlands,Percent,0.000012,2020,0.000012,0.000011
1,'DALYs (Disability-Adjusted Life Years)',Netherlands,Rate,0.407368,2020,0.387557,0.399874
1,'DALYs (Disability-Adjusted Life Years)',Kiribati,Number,0.145481,2020,0.157211,0.124535
1,'DALYs (Disability-Adjusted Life Years)',Kiribati,Percent,0.000002,2020,0.000002,0.000002
1,'DALYs (Disability-Adjusted Life Years)',Kiribati,Rate,0.119289,2020,0.128908,0.102115
1,'DALYs (Disability-Adjusted Life Years)','Central African Republic',Percent,0,2023,0.000001,0
1,'DALYs (Disability-Adjusted Life Years)','Central African Republic',Rate,0.126246,2023,0.142707,0.099262
1,'DALYs (Disability-Adjusted Life Years)',Egypt,Percent,0.000003,2022,0.000004,0.000003
1,'DALYs (Disability-Adjusted Life Years)',Egypt,Rate,0.139169,2022,0.143654,0.127191
1,'DALYs (Disability-Adjusted Life Years)',Kenya,Percent,0.000004,2023,0.000004,0.000003
1,'DALYs (Disability-Adjusted Life Years)',Kenya,Rate,0.162273,2023,0.172381,0.147318
1,'DALYs (Disability-Adjusted Life Years)',Egypt,Percent,0.000003,2021,0.000003,0.000003
1,'DALYs (Disability-Adjusted Life Years)',Egypt,Rate,0.1264,2021,0.125975,0.119074
1,'DALYs (Disability-Adjusted Life Years)','Saint Kitts and Nevis',Number,0.127059,2021,0.123428,0.12626
1,'DALYs (Disability-Adjusted Life Years)','Saint Kitts and Nevis',Percent,0.000006,2021,0.000006,0.000006
1,'DALYs (Disability-Adjusted Life Years)','Saint Kitts and Nevis',Rate,0.263295,2021,0.25577,0.261639
1,'DALYs (Disability-Adjusted Life Years)','Sri Lanka',Percent,0.000004,2021,0.000004,0.000004
1,'DALYs (Disability-Adjusted Life Years)','Sri Lanka',Rate,0.146165,2021,0.142118,0.141675
1,'DALYs (Disability-Adjusted Life Years)',Switzerland,Percent,0.000009,2020,0.00001,0.000009
1,'DALYs (Disability-Adjusted Life Years)',Switzerland,Rate,0.294556,2020,0.282375,0.286517
1,'DALYs (Disability-Adjusted Life Years)',Germany,Percent,0.000011,2020,0.000011,0.000011
1,'DALYs (Disability-Adjusted Life Years)',Germany,Rate,0.431163,2020,0.410137,0.423667
1,'DALYs (Disability-Adjusted Life Years)',Tonga,Number,0.244787,2023,0.256121,0.223666
1,'DALYs (Disability-Adjusted Life Years)',Tonga,Percent,0.000007,2023,0.000007,0.000006
1,'DALYs (Disability-Adjusted Life Years)',Tonga,Rate,0.23447,2023,0.245325,0.214239
1,'DALYs (Disability-Adjusted Life Years)',Iceland,Percent,0.00001,2022,0.000011,0.00001
1,'DALYs (Disability-Adjusted Life Years)',Iceland,Rate,0.290551,2022,0.282061,0.284641
1,'DALYs (Disability-Adjusted Life Years)',Maldives,Number,0.420008,2022,0.416285,0.401982
1,'DALYs (Disability-Adjusted Life Years)',Maldives,Percent,0.000003,2022,0.000003,0.000003
1,'DALYs (Disability-Adjusted Life Years)',Maldives,Rate,0.0793,2022,0.078597,0.075896
1,'DALYs (Disability-Adjusted Life Years)',Luxembourg,Percent,0.00001,2023,0.00001,0.000009
1,'DALYs (Disability-Adjusted Life Years)',Luxembourg,Rate,0.27111,2023,0.263013,0.264683
1,'DALYs (Disability-Adjusted Life Years)',Gambia,Percent,0,2020,0,0
1,'DALYs (Disability-Adjusted Life Years)',Gambia,Rate,0.070213,2020,0.077521,0.061961
1,'DALYs (Disability-Adjusted Life Years)',Türkiye,Percent,0.000008,2022,0.000008,0.000007
1,'DALYs (Disability-Adjusted Life Years)',Türkiye,Rate,0.240856,2022,0.240577,0.223204
1,'DALYs (Disability-Adjusted Life Years)',Montenegro,Percent,0.000011,2023,0.000011,0.00001
1,'DALYs (Disability-Adjusted Life Years)',Montenegro,Rate,0.409209,2023,0.406822,0.389646
1,'DALYs (Disability-Adjusted Life Years)',Guam,Number,0.381494,2021,0.371142,0.374559
1,'DALYs (Disability-Adjusted Life Years)',Guam,Percent,0.000006,2021,0.000006,0.000006
1,'DALYs (Disability-Adjusted Life Years)',Guam,Rate,0.239378,2021,0.232882,0.235027
1,'DALYs (Disability-Adjusted Life Years)',Turkmenistan,Percent,0.000004,2023,0.000004,0.000004
1,'DALYs (Disability-Adjusted Life Years)',Turkmenistan,Rate,0.158199,2023,0.158206,0.152827
1,'DALYs (Disability-Adjusted Life Years)',Tuvalu,Number,0.029508,2020,0.031718,0.026309
1,'DALYs (Disability-Adjusted Life Years)',Tuvalu,Percent,0.000005,2020,0.000005,0.000004
1,'DALYs (Disability-Adjusted Life Years)',Tuvalu,Rate,0.26847,2020,0.28858,0.239362
1,'DALYs (Disability-Adjusted Life Years)','Russian Federation',Percent,0.000006,2022,0.000006,0.000006
1,'DALYs (Disability-Adjusted Life Years)','Russian Federation',Rate,0.328856,2022,0.310795,0.331216
1,'DALYs (Disability-Adjusted Life Years)','Cabo Verde',Percent,0.000006,2022,0.000006,0.000005
1,'DALYs (Disability-Adjusted Life Years)','Cabo Verde',Rate,0.194206,2022,0.207526,0.177568
1,'DALYs (Disability-Adjusted Life Years)',Somalia,Percent,0,2020,0,0
1,'DALYs (Disability-Adjusted Life Years)',Somalia,Rate,0.097043,2020,0.103101,0.083889
1,'DALYs (Disability-Adjusted Life Years)',Serbia,Percent,0.000009,2021,0.000009,0.000009
1,'DALYs (Disability-Adjusted Life Years)',Serbia,Rate,0.476654,2021,0.45289,0.468631
1,'DALYs (Disability-Adjusted Life Years)',Jordan,Percent,0.000005,2022,0.000005,0.000004
1,'DALYs (Disability-Adjusted Life Years)',Jordan,Rate,0.119699,2022,0.118281,0.114714
1,'DALYs (Disability-Adjusted Life Years)',Tajikistan,Percent,0.000003,2023,0.000004,0.000003
1,'DALYs (Disability-Adjusted Life Years)',Tajikistan,Rate,0.118368,2023,0.127711,0.108118
1,'DALYs (Disability-Adjusted Life Years)',Australia,Percent,0.00001,2020,0.00001,0.000009
1,'DALYs (Disability-Adjusted Life Years)',Australia,Rate,0.276873,2020,0.265221,0.268319
1,'DALYs (Disability-Adjusted Life Years)',Angola,Percent,0.000001,2021,0.000001,0.000001
1,'DALYs (Disability-Adjusted Life Years)',Angola,Rate,0.121734,2021,0.130074,0.108664
1,'DALYs (Disability-Adjusted Life Years)','South Sudan',Percent,0.000002,2023,0.000002,0.000002
1,'DALYs (Disability-Adjusted Life Years)','South Sudan',Rate,0.244764,2023,0.260266,0.225811
1,'DALYs (Disability-Adjusted Life Years)',Suriname,Percent,0.000005,2020,0.000005,0.000005
1,'DALYs (Disability-Adjusted Life Years)',Suriname,Rate,0.216458,2020,0.21212,0.208726
1,'DALYs (Disability-Adjusted Life Years)','Solomon Islands',Percent,0.000004,2022,0.000005,0.000004
1,'DALYs (Disability-Adjusted Life Years)','Solomon Islands',Rate,0.205719,2022,0.21358,0.188965
1,'DALYs (Disability-Adjusted Life Years)',Chad,Percent,0,2023,0,0
1,'DALYs (Disability-Adjusted Life Years)',Chad,Rate,0.106509,2023,0.119816,0.091975
1,'DALYs (Disability-Adjusted Life Years)',Togo,Percent,0.000001,2019,0.000001,0.000001
1,'DALYs (Disability-Adjusted Life Years)',Togo,Rate,0.107315,2019,0.114889,0.096249
1,'DALYs (Disability-Adjusted Life Years)','Democratic Peoples Republic of Korea',Percent,0.000008,2022,0.000008,0.000007
1,'DALYs (Disability-Adjusted Life Years)','Democratic Peoples Republic of Korea',Rate,0.29433,2022,0.311691,0.262646
1,'DALYs (Disability-Adjusted Life Years)',Czechia,Percent,0.00001,2020,0.00001,0.00001
1,'DALYs (Disability-Adjusted Life Years)',Czechia,Rate,0.418944,2020,0.393724,0.421447
1,'DALYs (Disability-Adjusted Life Years)','Côte dIvoire',Percent,0.000001,2021,0.000001,0.000001
1,'DALYs (Disability-Adjusted Life Years)','Côte dIvoire',Rate,0.116955,2021,0.123295,0.104481
1,'DALYs (Disability-Adjusted Life Years)',Panama,Percent,0.000005,2023,0.000005,0.000005
1,'DALYs (Disability-Adjusted Life Years)',Panama,Rate,0.16372,2023,0.157622,0.161179
1,'DALYs (Disability-Adjusted Life Years)',Sudan,Percent,0.000003,2022,0.000003,0.000002
1,'DALYs (Disability-Adjusted Life Years)',Sudan,Rate,0.130461,2022,0.147129,0.108538
1,'DALYs (Disability-Adjusted Life Years)',Cuba,Percent,0.000009,2022,0.000009,0.000008
1,'DALYs (Disability-Adjusted Life Years)',Cuba,Rate,0.355987,2022,0.355884,0.347052
1,'DALYs (Disability-Adjusted Life Years)',Niue,Number,0.004306,2023,0.004634,0.003857
1,'DALYs (Disability-Adjusted Life Years)',Niue,Percent,0.000005,2023,0.000006,0.000005
1,'DALYs (Disability-Adjusted Life Years)',Niue,Rate,0.256231,2023,0.275788,0.229522
1,'DALYs (Disability-Adjusted Life Years)',Ukraine,Percent,0.000006,2023,0.000006,0.000006
1,'DALYs (Disability-Adjusted Life Years)',Ukraine,Rate,0.354632,2023,0.352917,0.34467
1,'DALYs (Disability-Adjusted Life Years)','New Zealand',Percent,0.00001,2022,0.00001,0.000009
1,'DALYs (Disability-Adjusted Life Years)','New Zealand',Rate,0.31348,2022,0.300124,0.308178
1,'DALYs (Disability-Adjusted Life Years)',Mexico,Percent,0.000004,2022,0.000004,0.000003
1,'DALYs (Disability-Adjusted Life Years)',Mexico,Rate,0.148991,2022,0.140111,0.151493
1,'DALYs (Disability-Adjusted Life Years)',Thailand,Percent,0.00001,2023,0.00001,0.000009
1,'DALYs (Disability-Adjusted Life Years)',Thailand,Rate,0.3748,2023,0.388844,0.359403
1,'DALYs (Disability-Adjusted Life Years)','Northern Mariana Islands',Number,0.138498,2019,0.139881,0.131426
1,'DALYs (Disability-Adjusted Life Years)','Northern Mariana Islands',Percent,0.000008,2019,0.000008,0.000007
1,'DALYs (Disability-Adjusted Life Years)','Northern Mariana Islands',Rate,0.285295,2019,0.288143,0.270727
1,'DALYs (Disability-Adjusted Life Years)','Dominican Republic',Percent,0.000005,2023,0.000005,0.000005
1,'DALYs (Disability-Adjusted Life Years)','Dominican Republic',Rate,0.194066,2023,0.193078,0.180887
1,'DALYs (Disability-Adjusted Life Years)',Italy,Percent,0.000011,2022,0.000011,0.00001
1,'DALYs (Disability-Adjusted Life Years)',Italy,Rate,0.408823,2022,0.394047,0.393314
1,'DALYs (Disability-Adjusted Life Years)','Papua New Guinea',Percent,0.000002,2022,0.000002,0.000002
1,'DALYs (Disability-Adjusted Life Years)','Papua New Guinea',Rate,0.137403,2022,0.144427,0.119073
1,'DALYs (Disability-Adjusted Life Years)',Djibouti,Percent,0.000003,2021,0.000003,0.000002
1,'DALYs (Disability-Adjusted Life Years)',Djibouti,Rate,0.176631,2021,0.19417,0.14848
1,'DALYs (Disability-Adjusted Life Years)',Malta,Percent,0.000009,2021,0.000009,0.000008
1,'DALYs (Disability-Adjusted Life Years)',Malta,Rate,0.275465,2021,0.266987,0.270332
1,'DALYs (Disability-Adjusted Life Years)',Tunisia,Percent,0.000006,2022,0.000007,0.000006
1,'DALYs (Disability-Adjusted Life Years)',Tunisia,Rate,0.231288,2022,0.230076,0.222975
1,'DALYs (Disability-Adjusted Life Years)',Djibouti,Percent,0.000003,2022,0.000003,0.000003
1,'DALYs (Disability-Adjusted Life Years)',Djibouti,Rate,0.18044,2022,0.191015,0.163666
1,'DALYs (Disability-Adjusted Life Years)',Grenada,Number,0.333023,2021,0.324526,0.328571
1,'DALYs (Disability-Adjusted Life Years)',Grenada,Percent,0.000006,2021,0.000006,0.000006
1,'DALYs (Disability-Adjusted Life Years)',Grenada,Rate,0.292167,2021,0.284713,0.288261
1,'DALYs (Disability-Adjusted Life Years)','Trinidad and Tobago',Percent,0.000006,2022,0.000006,0.000006
1,'DALYs (Disability-Adjusted Life Years)','Trinidad and Tobago',Rate,0.302264,2022,0.292458,0.300911
1,'DALYs (Disability-Adjusted Life Years)','United Kingdom',Percent,0.000011,2022,0.000011,0.00001
1,'DALYs (Disability-Adjusted Life Years)','United Kingdom',Rate,0.367897,2022,0.349591,0.361801
1,'DALYs (Disability-Adjusted Life Years)',Haiti,Percent,0.000003,2023,0.000003,0.000002
1,'DALYs (Disability-Adjusted Life Years)',Haiti,Rate,0.196818,2023,0.209257,0.177401
1,'DALYs (Disability-Adjusted Life Years)',Malawi,Percent,0.000004,2023,0.000004,0.000003
1,'DALYs (Disability-Adjusted Life Years)',Malawi,Rate,0.227039,2023,0.254344,0.19085
1,'DALYs (Disability-Adjusted Life Years)',Guam,Number,0.3587,2022,0.349818,0.350595
1,'DALYs (Disability-Adjusted Life Years)',Guam,Percent,0.000006,2022,0.000006,0.000005
1,'DALYs (Disability-Adjusted Life Years)',Guam,Rate,0.226451,2022,0.220844,0.221335
1,'DALYs (Disability-Adjusted Life Years)',Kazakhstan,Percent,0.000005,2020,0.000004,0.000005
1,'DALYs (Disability-Adjusted Life Years)',Kazakhstan,Rate,0.190589,2020,0.179998,0.192031
1,'DALYs (Disability-Adjusted Life Years)','Venezuela (Bolivarian Republic of)',Percent,0.000005,2021,0.000005,0.000005
1,'DALYs (Disability-Adjusted Life Years)','Venezuela (Bolivarian Republic of)',Rate,0.249802,2021,0.241951,0.244386
1,'DALYs (Disability-Adjusted Life Years)','Democratic Republic of the Congo',Percent,0.000002,2023,0.000002,0.000002
1,'DALYs (Disability-Adjusted Life Years)','Democratic Republic of the Congo',Rate,0.185732,2023,0.203177,0.151327
1,'DALYs (Disability-Adjusted Life Years)','Bolivia (Plurinational State of)',Percent,0.000006,2023,0.000007,0.000006
1,'DALYs (Disability-Adjusted Life Years)','Bolivia (Plurinational State of)',Rate,0.247191,2023,0.251293,0.235467
1,'DALYs (Disability-Adjusted Life Years)',Belize,Number,0.562598,2022,0.550431,0.554068
1,'DALYs (Disability-Adjusted Life Years)',Belize,Percent,0.000004,2022,0.000004,0.000003
1,'DALYs (Disability-Adjusted Life Years)',Belize,Rate,0.137623,2022,0.134647,0.135537
1,'DALYs (Disability-Adjusted Life Years)',Kyrgyzstan,Percent,0.000003,2022,0.000003,0.000003
1,'DALYs (Disability-Adjusted Life Years)',Kyrgyzstan,Rate,0.103787,2022,0.100569,0.102973
1,'DALYs (Disability-Adjusted Life Years)',Nepal,Percent,0.000002,2021,0.000002,0.000002
1,'DALYs (Disability-Adjusted Life Years)',Nepal,Rate,0.107153,2021,0.112031,0.100498
1,'DALYs (Disability-Adjusted Life Years)',Botswana,Percent,0.000003,2023,0.000003,0.000002
1,'DALYs (Disability-Adjusted Life Years)',Botswana,Rate,0.150933,2023,0.16792,0.127014
1,'DALYs (Disability-Adjusted Life Years)',Vanuatu,Number,0.317535,2021,0.339527,0.286775
1,'DALYs (Disability-Adjusted Life Years)',Vanuatu,Percent,0.000002,2021,0.000002,0.000002
1,'DALYs (Disability-Adjusted Life Years)',Vanuatu,Rate,0.100303,2021,0.10725,0.090587
1,'DALYs (Disability-Adjusted Life Years)',Montenegro,Percent,0.00001,2022,0.00001,0.000009
1,'DALYs (Disability-Adjusted Life Years)',Montenegro,Rate,0.404025,2022,0.401579,0.382431
1,'DALYs (Disability-Adjusted Life Years)',Sweden,Percent,0.00001,2021,0.00001,0.000009
1,'DALYs (Disability-Adjusted Life Years)',Sweden,Rate,0.305559,2021,0.294469,0.296304
1,'DALYs (Disability-Adjusted Life Years)',Dominica,Number,0.225606,2022,0.228092,0.216603
1,'DALYs (Disability-Adjusted Life Years)',Dominica,Percent,0.000008,2022,0.000009,0.000008
1,'DALYs (Disability-Adjusted Life Years)',Dominica,Rate,0.325253,2022,0.328836,0.312273
1,'DALYs (Disability-Adjusted Life Years)',Madagascar,Percent,0.000002,2021,0.000002,0.000002
1,'DALYs (Disability-Adjusted Life Years)',Madagascar,Rate,0.17268,2021,0.177906,0.162837
1,'DALYs (Disability-Adjusted Life Years)',Angola,Percent,0.000002,2022,0.000002,0.000001
1,'DALYs (Disability-Adjusted Life Years)',Angola,Rate,0.128096,2022,0.138113,0.112759
1,'DALYs (Disability-Adjusted Life Years)',Uruguay,Percent,0.000012,2022,0.000012,0.000012
1,'DALYs (Disability-Adjusted Life Years)',Uruguay,Rate,0.476987,2022,0.452344,0.477099
1,'DALYs (Disability-Adjusted Life Years)',Kuwait,Percent,0.000003,2023,0.000003,0.000003
1,'DALYs (Disability-Adjusted Life Years)',Kuwait,Rate,0.071534,2023,0.069325,0.070325
1,'DALYs (Disability-Adjusted Life Years)',Nauru,Number,0.035324,2022,0.03898,0.031393
1,'DALYs (Disability-Adjusted Life Years)',Nauru,Percent,0.000005,2022,0.000005,0.000004
1,'DALYs (Disability-Adjusted Life Years)',Nauru,Rate,0.290841,2022,0.320944,0.258474
1,'DALYs (Disability-Adjusted Life Years)',Senegal,Percent,0.000002,2022,0.000002,0.000002
1,'DALYs (Disability-Adjusted Life Years)',Senegal,Rate,0.098474,2022,0.104171,0.089822
1,'DALYs (Disability-Adjusted Life Years)',Austria,Percent,0.00001,2021,0.00001,0.000009
1,'DALYs (Disability-Adjusted Life Years)',Austria,Rate,0.350111,2021,0.333924,0.345342
1,'DALYs (Disability-Adjusted Life Years)',Zambia,Percent,0.000002,2022,0.000002,0.000002
1,'DALYs (Disability-Adjusted Life Years)',Zambia,Rate,0.156214,2022,0.167579,0.139838
1,'DALYs (Disability-Adjusted Life Years)',Lesotho,Percent,0.000001,2021,0.000001,0.000001
1,'DALYs (Disability-Adjusted Life Years)',Lesotho,Rate,0.151408,2021,0.174307,0.132036
1,'DALYs (Disability-Adjusted Life Years)',Cameroon,Percent,0.000001,2022,0.000001,0.000001
1,'DALYs (Disability-Adjusted Life Years)',Cameroon,Rate,0.126366,2022,0.133226,0.112833
1,'DALYs (Disability-Adjusted Life Years)',Austria,Percent,0.00001,2022,0.00001,0.00001
1,'DALYs (Disability-Adjusted Life Years)',Austria,Rate,0.359533,2022,0.343731,0.352609
1,'DALYs (Disability-Adjusted Life Years)','United Republic of Tanzania',Percent,0.000002,2021,0.000002,0.000002
1,'DALYs (Disability-Adjusted Life Years)','United Republic of Tanzania',Rate,0.122013,2021,0.136333,0.101967
1,'DALYs (Disability-Adjusted Life Years)','Burkina Faso',Percent,0,2020,0,0
1,'DALYs (Disability-Adjusted Life Years)','Burkina Faso',Rate,0.072256,2020,0.073813,0.067508
1,'DALYs (Disability-Adjusted Life Years)','Democratic Peoples Republic of Korea',Percent,0.000008,2023,0.000008,0.000007
1,'DALYs (Disability-Adjusted Life Years)','Democratic Peoples Republic of Korea',Rate,0.298486,2023,0.325851,0.262224
1,'DALYs (Disability-Adjusted Life Years)',Comoros,Number,0.703394,2020,0.733144,0.628801
1,'DALYs (Disability-Adjusted Life Years)',Comoros,Percent,0.000002,2020,0.000002,0.000001
1,'DALYs (Disability-Adjusted Life Years)',Comoros,Rate,0.084565,2020,0.088142,0.075597
1,'DALYs (Disability-Adjusted Life Years)',Lesotho,Percent,0.000002,2022,0.000002,0.000001
1,'DALYs (Disability-Adjusted Life Years)',Lesotho,Rate,0.165917,2022,0.191588,0.139582
1,'DALYs (Disability-Adjusted Life Years)',Cambodia,Percent,0.000003,2022,0.000003,0.000003
1,'DALYs (Disability-Adjusted Life Years)',Cambodia,Rate,0.128165,2022,0.134742,0.119404
1,'DALYs (Disability-Adjusted Life Years)',Finland,Percent,0.00001,2023,0.00001,0.00001
1,'DALYs (Disability-Adjusted Life Years)',Finland,Rate,0.372091,2023,0.35905,0.358798
1,'DALYs (Disability-Adjusted Life Years)',Niger,Percent,0,2022,0,0
1,'DALYs (Disability-Adjusted Life Years)',Niger,Rate,0.098779,2022,0.115772,0.083477
1,'DALYs (Disability-Adjusted Life Years)',Bangladesh,Percent,0.000005,2023,0.000005,0.000005
1,'DALYs (Disability-Adjusted Life Years)',Bangladesh,Rate,0.198252,2023,0.20935,0.174376
1,'DALYs (Disability-Adjusted Life Years)',Hungary,Percent,0.00001,2021,0.000009,0.000009
1,'DALYs (Disability-Adjusted Life Years)',Hungary,Rate,0.500901,2021,0.469661,0.509389
1,'DALYs (Disability-Adjusted Life Years)',Poland,Percent,0.000011,2022,0.000011,0.00001
1,'DALYs (Disability-Adjusted Life Years)',Poland,Rate,0.442917,2022,0.417531,0.444828
1,'DALYs (Disability-Adjusted Life Years)',Philippines,Percent,0.000004,2022,0.000004,0.000004
1,'DALYs (Disability-Adjusted Life Years)',Philippines,Rate,0.149006,2022,0.145922,0.146315
1,'DALYs (Disability-Adjusted Life Years)',Uganda,Percent,0.000003,2020,0.000003,0.000003
1,'DALYs (Disability-Adjusted Life Years)',Uganda,Rate,0.186532,2020,0.198935,0.168957
1,'DALYs (Disability-Adjusted Life Years)',Timor-Leste,Percent,0.000003,2021,0.000003,0.000002
1,'DALYs (Disability-Adjusted Life Years)',Timor-Leste,Rate,0.125369,2021,0.133284,0.113666
1,'DALYs (Disability-Adjusted Life Years)',Israel,Percent,0.000009,2022,0.000009,0.000008
1,'DALYs (Disability-Adjusted Life Years)',Israel,Rate,0.207381,2022,0.19817,0.202537
1,'DALYs (Disability-Adjusted Life Years)','Iran (Islamic Republic of)',Percent,0.000004,2020,0.000004,0.000004
1,'DALYs (Disability-Adjusted Life Years)','Iran (Islamic Republic of)',Rate,0.150515,2020,0.149072,0.146824
1,'DALYs (Disability-Adjusted Life Years)',Timor-Leste,Percent,0.000003,2022,0.000003,0.000002
1,'DALYs (Disability-Adjusted Life Years)',Timor-Leste,Rate,0.127507,2022,0.136321,0.115252
1,'DALYs (Disability-Adjusted Life Years)','Puerto Rico',Percent,0.000007,2023,0.000007,0.000006
1,'DALYs (Disability-Adjusted Life Years)','Puerto Rico',Rate,0.280536,2023,0.269264,0.27506
1,'DALYs (Disability-Adjusted Life Years)',Uzbekistan,Percent,0.000003,2021,0.000003,0.000003
1,'DALYs (Disability-Adjusted Life Years)',Uzbekistan,Rate,0.127834,2021,0.121124,0.129511
1,'DALYs (Disability-Adjusted Life Years)','Syrian Arab Republic',Percent,0.000002,2020,0.000002,0.000002
1,'DALYs (Disability-Adjusted Life Years)','Syrian Arab Republic',Rate,0.095419,2020,0.097191,0.0883
1,'DALYs (Disability-Adjusted Life Years)','Republic of Moldova',Percent,0.000007,2022,0.000006,0.000006
1,'DALYs (Disability-Adjusted Life Years)','Republic of Moldova',Rate,0.296927,2022,0.286191,0.296784
1,'DALYs (Disability-Adjusted Life Years)','Northern Mariana Islands',Number,0.157523,2021,0.161782,0.148028
1,'DALYs (Disability-Adjusted Life Years)','Northern Mariana Islands',Percent,0.000007,2021,0.000007,0.000007
1,'DALYs (Disability-Adjusted Life Years)','Northern Mariana Islands',Rate,0.328853,2021,0.337744,0.30903
1,'DALYs (Disability-Adjusted Life Years)',Guyana,Percent,0.000004,2023,0.000004,0.000004
1,'DALYs (Disability-Adjusted Life Years)',Guyana,Rate,0.212137,2023,0.209887,0.202228
1,'DALYs (Disability-Adjusted Life Years)',Yemen,Percent,0.000001,2022,0.000001,0.000001
1,'DALYs (Disability-Adjusted Life Years)',Yemen,Rate,0.079726,2022,0.089385,0.065846
1,'DALYs (Disability-Adjusted Life Years)',Bulgaria,Percent,0.000008,2023,0.000008,0.000008
1,'DALYs (Disability-Adjusted Life Years)',Bulgaria,Rate,0.410851,2023,0.391264,0.40927
1,'DALYs (Disability-Adjusted Life Years)',Panama,Percent,0.000005,2022,0.000005,0.000005
1,'DALYs (Disability-Adjusted Life Years)',Panama,Rate,0.162408,2022,0.155644,0.16316
1,'DALYs (Disability-Adjusted Life Years)',Argentina,Percent,0.000007,2021,0.000007,0.000007
1,'DALYs (Disability-Adjusted Life Years)',Argentina,Rate,0.270197,2021,0.254277,0.274344
1,'DALYs (Disability-Adjusted Life Years)',Uzbekistan,Percent,0.000003,2022,0.000003,0.000003
1,'DALYs (Disability-Adjusted Life Years)',Uzbekistan,Rate,0.12692,2022,0.122634,0.126959
1,'DALYs (Disability-Adjusted Life Years)',Iraq,Percent,0.000005,2022,0.000005,0.000005
1,'DALYs (Disability-Adjusted Life Years)',Iraq,Rate,0.188673,2022,0.192948,0.175384
1,'DALYs (Disability-Adjusted Life Years)',Chile,Percent,0.000008,2022,0.000008,0.000007
1,'DALYs (Disability-Adjusted Life Years)',Chile,Rate,0.249522,2022,0.236095,0.248265
1,'DALYs (Disability-Adjusted Life Years)',Guinea,Percent,0.000001,2020,0.000001,0.000001
1,'DALYs (Disability-Adjusted Life Years)',Guinea,Rate,0.1117,2020,0.122671,0.098477
1,'DALYs (Disability-Adjusted Life Years)','Venezuela (Bolivarian Republic of)',Percent,0.000006,2022,0.000006,0.000005
1,'DALYs (Disability-Adjusted Life Years)','Venezuela (Bolivarian Republic of)',Rate,0.255415,2022,0.25103,0.245797
1,'DALYs (Disability-Adjusted Life Years)',Ecuador,Percent,0.000005,2022,0.000004,0.000004
1,'DALYs (Disability-Adjusted Life Years)',Ecuador,Rate,0.160897,2022,0.151673,0.162788
1,'DALYs (Disability-Adjusted Life Years)',Lebanon,Percent,0.000007,2022,0.000007,0.000006
1,'DALYs (Disability-Adjusted Life Years)',Lebanon,Rate,0.217773,2022,0.218687,0.208412
1,'DALYs (Disability-Adjusted Life Years)','South Africa',Percent,0.000004,2023,0.000004,0.000003
1,'DALYs (Disability-Adjusted Life Years)','South Africa',Rate,0.214366,2023,0.227939,0.196577
1,'DALYs (Disability-Adjusted Life Years)',Kenya,Percent,0.000004,2022,0.000004,0.000003
1,'DALYs (Disability-Adjusted Life Years)',Kenya,Rate,0.157722,2022,0.163989,0.145623
1,'DALYs (Disability-Adjusted Life Years)',Namibia,Percent,0.000002,2021,0.000002,0.000002
1,'DALYs (Disability-Adjusted Life Years)',Namibia,Rate,0.165817,2021,0.172455,0.140684
1,'DALYs (Disability-Adjusted Life Years)',Greece,Percent,0.000011,2020,0.000011,0.00001
1,'DALYs (Disability-Adjusted Life Years)',Greece,Rate,0.416564,2020,0.396686,0.409506
1,'DALYs (Disability-Adjusted Life Years)',Ecuador,Percent,0.000004,2021,0.000004,0.000004
1,'DALYs (Disability-Adjusted Life Years)',Ecuador,Rate,0.158524,2021,0.149299,0.160981
1,'DALYs (Disability-Adjusted Life Years)','Côte dIvoire',Percent,0.000001,2022,0.000001,0.000001
1,'DALYs (Disability-Adjusted Life Years)','Côte dIvoire',Rate,0.129302,2022,0.137422,0.114807
1,'DALYs (Disability-Adjusted Life Years)',Romania,Percent,0.00001,2023,0.00001,0.000009
1,'DALYs (Disability-Adjusted Life Years)',Romania,Rate,0.424707,2023,0.403173,0.429772
1,'DALYs (Disability-Adjusted Life Years)','Sierra Leone',Percent,0.000001,2023,0.000001,0.000001
1,'DALYs (Disability-Adjusted Life Years)','Sierra Leone',Rate,0.140317,2023,0.150494,0.124228
1,'DALYs (Disability-Adjusted Life Years)',Senegal,Percent,0.000001,2021,0.000001,0.000001
1,'DALYs (Disability-Adjusted Life Years)',Senegal,Rate,0.084521,2021,0.086226,0.078706
1,'DALYs (Disability-Adjusted Life Years)',Tajikistan,Percent,0.000003,2022,0.000004,0.000003
1,'DALYs (Disability-Adjusted Life Years)',Tajikistan,Rate,0.115747,2022,0.125617,0.106942
1,'DALYs (Disability-Adjusted Life Years)','Republic of Korea',Percent,0.00001,2023,0.000011,0.000009
1,'DALYs (Disability-Adjusted Life Years)','Republic of Korea',Rate,0.296948,2023,0.298029,0.283862
1,'DALYs (Disability-Adjusted Life Years)','United Arab Emirates',Percent,0.000002,2022,0.000003,0.000002
1,'DALYs (Disability-Adjusted Life Years)','United Arab Emirates',Rate,0.053965,2022,0.057895,0.050273
1,'DALYs (Disability-Adjusted Life Years)','United States of America',Percent,0.000007,2023,0.000007,0.000007
1,'DALYs (Disability-Adjusted Life Years)','United States of America',Rate,0.307374,2023,0.295016,0.302825
1,'DALYs (Disability-Adjusted Life Years)',Spain,Percent,0.000011,2023,0.000011,0.00001
1,'DALYs (Disability-Adjusted Life Years)',Spain,Rate,0.358247,2023,0.342939,0.349391
1,'DALYs (Disability-Adjusted Life Years)',Palau,Number,0.074497,2023,0.075945,0.069352
1,'DALYs (Disability-Adjusted Life Years)',Palau,Percent,0.000008,2023,0.000008,0.000008
1,'DALYs (Disability-Adjusted Life Years)',Palau,Rate,0.416281,2023,0.424372,0.387527
1,'DALYs (Disability-Adjusted Life Years)',Turkmenistan,Percent,0.000004,2022,0.000004,0.000004
1,'DALYs (Disability-Adjusted Life Years)',Turkmenistan,Rate,0.160559,2022,0.158858,0.156447
1,'DALYs (Disability-Adjusted Life Years)','United States Virgin Islands',Number,0.287552,2022,0.281817,0.280421
1,'DALYs (Disability-Adjusted Life Years)','United States Virgin Islands',Percent,0.000007,2022,0.000007,0.000007
1,'DALYs (Disability-Adjusted Life Years)','United States Virgin Islands',Rate,0.335167,2022,0.328482,0.326855
1,'DALYs (Disability-Adjusted Life Years)','Costa Rica',Percent,0.000007,2023,0.000007,0.000007
1,'DALYs (Disability-Adjusted Life Years)','Costa Rica',Rate,0.219889,2023,0.21101,0.219292
1,'DALYs (Disability-Adjusted Life Years)',Tokelau,Number,0.002173,2021,0.002384,0.001936
1,'DALYs (Disability-Adjusted Life Years)',Tokelau,Percent,0.000003,2021,0.000004,0.000003
1,'DALYs (Disability-Adjusted Life Years)',Tokelau,Rate,0.135766,2021,0.148986,0.120965
1,'DALYs (Disability-Adjusted Life Years)',Bermuda,Number,0.271815,2023,0.263894,0.264728
1,'DALYs (Disability-Adjusted Life Years)',Bermuda,Percent,0.000012,2023,0.000012,0.000011
1,'DALYs (Disability-Adjusted Life Years)',Bermuda,Rate,0.431321,2023,0.418752,0.420076
1,'DALYs (Disability-Adjusted Life Years)',Oman,Percent,0.000003,2023,0.000003,0.000002
1,'DALYs (Disability-Adjusted Life Years)',Oman,Rate,0.067189,2023,0.070912,0.059562
1,'DALYs (Disability-Adjusted Life Years)',Samoa,Number,0.238888,2022,0.260495,0.207069
1,'DALYs (Disability-Adjusted Life Years)',Samoa,Percent,0.000003,2022,0.000003,0.000002
1,'DALYs (Disability-Adjusted Life Years)',Samoa,Rate,0.110285,2022,0.12026,0.095595
1,'DALYs (Disability-Adjusted Life Years)','Sao Tome and Principe',Number,0.317213,2022,0.347391,0.27377
1,'DALYs (Disability-Adjusted Life Years)','Sao Tome and Principe',Percent,0.000003,2022,0.000004,0.000003
1,'DALYs (Disability-Adjusted Life Years)','Sao Tome and Principe',Rate,0.144665,2022,0.158428,0.124853
1,'DALYs (Disability-Adjusted Life Years)','El Salvador',Percent,0.000005,2023,0.000005,0.000005
1,'DALYs (Disability-Adjusted Life Years)','El Salvador',Rate,0.218491,2023,0.223001,0.209563
1,'DALYs (Disability-Adjusted Life Years)',Belgium,Percent,0.000011,2023,0.000011,0.00001
1,'DALYs (Disability-Adjusted Life Years)',Belgium,Rate,0.365276,2023,0.349492,0.354355
1,'DALYs (Disability-Adjusted Life Years)',Ghana,Percent,0.000001,2021,0.000001,0.000001
1,'DALYs (Disability-Adjusted Life Years)',Ghana,Rate,0.112157,2021,0.115113,0.104447
1,'DALYs (Disability-Adjusted Life Years)',Monaco,Number,0.318828,2022,0.334904,0.279578
1,'DALYs (Disability-Adjusted Life Years)',Monaco,Percent,0.00002,2022,0.000022,0.000017
1,'DALYs (Disability-Adjusted Life Years)',Monaco,Rate,0.824937,2022,0.866533,0.723381
1,'DALYs (Disability-Adjusted Life Years)',Cameroon,Percent,0.000001,2021,0.000001,0.000001
1,'DALYs (Disability-Adjusted Life Years)',Cameroon,Rate,0.119177,2021,0.124727,0.108941
1,'DALYs (Disability-Adjusted Life Years)',Andorra,Number,0.333542,2022,0.331091,0.315986
1,'DALYs (Disability-Adjusted Life Years)',Andorra,Percent,0.000013,2022,0.000013,0.000012
1,'DALYs (Disability-Adjusted Life Years)',Andorra,Rate,0.384889,2022,0.38206,0.36463
1,'DALYs (Disability-Adjusted Life Years)',Cambodia,Percent,0.000003,2023,0.000003,0.000003
1,'DALYs (Disability-Adjusted Life Years)',Cambodia,Rate,0.136487,2023,0.140979,0.126356
1,'DALYs (Disability-Adjusted Life Years)',Luxembourg,Percent,0.000009,2022,0.00001,0.000009
1,'DALYs (Disability-Adjusted Life Years)',Luxembourg,Rate,0.25937,2022,0.249102,0.256167
1,'DALYs (Disability-Adjusted Life Years)',Armenia,Percent,0.000007,2023,0.000007,0.000007
1,'DALYs (Disability-Adjusted Life Years)',Armenia,Rate,0.246584,2023,0.240354,0.239754
1,'DALYs (Disability-Adjusted Life Years)',Mozambique,Percent,0.000001,2023,0.000001,0
1,'DALYs (Disability-Adjusted Life Years)',Mozambique,Rate,0.082397,2023,0.090534,0.067733
1,'DALYs (Disability-Adjusted Life Years)','South Sudan',Percent,0.000002,2022,0.000002,0.000002
1,'DALYs (Disability-Adjusted Life Years)','South Sudan',Rate,0.237523,2022,0.255284,0.218958
1,'DALYs (Disability-Adjusted Life Years)',Cyprus,Percent,0.000009,2022,0.00001,0.000009
1,'DALYs (Disability-Adjusted Life Years)',Cyprus,Rate,0.282964,2022,0.283672,0.267727
1,'DALYs (Disability-Adjusted Life Years)',Rwanda,Percent,0.000004,2023,0.000004,0.000004
1,'DALYs (Disability-Adjusted Life Years)',Rwanda,Rate,0.233565,2023,0.242853,0.21467
1,'DALYs (Disability-Adjusted Life Years)',Congo,Percent,0.000002,2021,0.000002,0.000001
1,'DALYs (Disability-Adjusted Life Years)',Congo,Rate,0.126629,2021,0.137778,0.112797
1,'DALYs (Disability-Adjusted Life Years)',Jamaica,Percent,0.000008,2023,0.000008,0.000007
1,'DALYs (Disability-Adjusted Life Years)',Jamaica,Rate,0.271199,2023,0.271109,0.259654
1,'DALYs (Disability-Adjusted Life Years)',Cyprus,Percent,0.000009,2021,0.00001,0.000009
1,'DALYs (Disability-Adjusted Life Years)',Cyprus,Rate,0.283005,2021,0.280798,0.272187
1,'DALYs (Disability-Adjusted Life Years)',Madagascar,Percent,0.000003,2022,0.000003,0.000003
1,'DALYs (Disability-Adjusted Life Years)',Madagascar,Rate,0.189998,2022,0.19641,0.176693
1,'DALYs (Disability-Adjusted Life Years)',Belgium,Percent,0.000011,2022,0.000011,0.00001
1,'DALYs (Disability-Adjusted Life Years)',Belgium,Rate,0.377095,2022,0.361543,0.365453
1,'DALYs (Disability-Adjusted Life Years)',Gambia,Percent,0.000001,2023,0.000001,0.000001
1,'DALYs (Disability-Adjusted Life Years)',Gambia,Rate,0.080256,2023,0.091713,0.066562
1,'DALYs (Disability-Adjusted Life Years)','Central African Republic',Percent,0,2022,0,0
1,'DALYs (Disability-Adjusted Life Years)','Central African Republic',Rate,0.121591,2022,0.138962,0.09624
1,'DALYs (Disability-Adjusted Life Years)',Mauritius,Percent,0.000004,2021,0.000004,0.000004
1,'DALYs (Disability-Adjusted Life Years)',Mauritius,Rate,0.205452,2021,0.195464,0.207732
1,'DALYs (Disability-Adjusted Life Years)','Saint Lucia',Number,0.48527,2023,0.483298,0.470213
1,'DALYs (Disability-Adjusted Life Years)','Saint Lucia',Percent,0.000007,2023,0.000007,0.000007
1,'DALYs (Disability-Adjusted Life Years)','Saint Lucia',Rate,0.271319,2023,0.270217,0.262901
1,'DALYs (Disability-Adjusted Life Years)',Guinea-Bissau,Percent,0.000001,2023,0.000001,0.000001
1,'DALYs (Disability-Adjusted Life Years)',Guinea-Bissau,Rate,0.124923,2023,0.135623,0.107739
1,'DALYs (Disability-Adjusted Life Years)',Malawi,Percent,0.000003,2022,0.000004,0.000003
1,'DALYs (Disability-Adjusted Life Years)',Malawi,Rate,0.219726,2022,0.246158,0.187394
1,'DALYs (Disability-Adjusted Life Years)','Bolivia (Plurinational State of)',Percent,0.000006,2022,0.000006,0.000006
1,'DALYs (Disability-Adjusted Life Years)','Bolivia (Plurinational State of)',Rate,0.247453,2022,0.250171,0.238404
1,'DALYs (Disability-Adjusted Life Years)',Ukraine,Percent,0.000005,2022,0.000005,0.000005
1,'DALYs (Disability-Adjusted Life Years)',Ukraine,Rate,0.331788,2022,0.326424,0.32822
1,'DALYs (Disability-Adjusted Life Years)',Peru,Percent,0.000007,2023,0.000007,0.000007
1,'DALYs (Disability-Adjusted Life Years)',Peru,Rate,0.221961,2023,0.217404,0.214496
1,'DALYs (Disability-Adjusted Life Years)',Ethiopia,Percent,0.000004,2022,0.000004,0.000004
1,'DALYs (Disability-Adjusted Life Years)',Ethiopia,Rate,0.237156,2022,0.25285,0.220251
1,'DALYs (Disability-Adjusted Life Years)',Liberia,Percent,0.000002,2023,0.000002,0.000002
1,'DALYs (Disability-Adjusted Life Years)',Liberia,Rate,0.16845,2023,0.178368,0.142283
1,'DALYs (Disability-Adjusted Life Years)',Malta,Percent,0.000009,2022,0.000009,0.000008
1,'DALYs (Disability-Adjusted Life Years)',Malta,Rate,0.27196,2022,0.26555,0.264226
1,'DALYs (Disability-Adjusted Life Years)',Congo,Percent,0.000002,2022,0.000002,0.000002
1,'DALYs (Disability-Adjusted Life Years)',Congo,Rate,0.141201,2022,0.158382,0.120247
1,'DALYs (Disability-Adjusted Life Years)',Vanuatu,Number,0.337147,2022,0.357921,0.302991
1,'DALYs (Disability-Adjusted Life Years)',Vanuatu,Percent,0.000002,2022,0.000003,0.000002
1,'DALYs (Disability-Adjusted Life Years)',Vanuatu,Rate,0.104303,2022,0.11073,0.093736
1,'DALYs (Disability-Adjusted Life Years)',Lebanon,Percent,0.000006,2021,0.000006,0.000005
1,'DALYs (Disability-Adjusted Life Years)',Lebanon,Rate,0.19159,2021,0.188607,0.188337
1,'DALYs (Disability-Adjusted Life Years)',Serbia,Percent,0.00001,2022,0.000011,0.00001
1,'DALYs (Disability-Adjusted Life Years)',Serbia,Rate,0.469263,2022,0.451354,0.460261
1,'DALYs (Disability-Adjusted Life Years)',Canada,Percent,0.00001,2022,0.00001,0.000009
1,'DALYs (Disability-Adjusted Life Years)',Canada,Rate,0.341406,2022,0.325528,0.335826
1,'DALYs (Disability-Adjusted Life Years)',Libya,Percent,0.000004,2023,0.000004,0.000003
1,'DALYs (Disability-Adjusted Life Years)',Libya,Rate,0.177995,2023,0.192707,0.155057
1,'DALYs (Disability-Adjusted Life Years)',Netherlands,Percent,0.000012,2023,0.000013,0.000011
1,'DALYs (Disability-Adjusted Life Years)',Netherlands,Rate,0.414449,2023,0.397509,0.403379
1,'DALYs (Disability-Adjusted Life Years)','United Kingdom',Percent,0.00001,2021,0.00001,0.000009
1,'DALYs (Disability-Adjusted Life Years)','United Kingdom',Rate,0.358932,2021,0.340367,0.354939
1,'DALYs (Disability-Adjusted Life Years)','Bosnia and Herzegovina',Percent,0.000011,2023,0.000011,0.00001
1,'DALYs (Disability-Adjusted Life Years)','Bosnia and Herzegovina',Rate,0.439346,2023,0.438978,0.421936
1,'DALYs (Disability-Adjusted Life Years)',Kiribati,Number,0.163333,2023,0.177303,0.13787
1,'DALYs (Disability-Adjusted Life Years)',Kiribati,Percent,0.000003,2023,0.000003,0.000002
1,'DALYs (Disability-Adjusted Life Years)',Kiribati,Rate,0.127769,2023,0.138697,0.10785
1,'DALYs (Disability-Adjusted Life Years)',Japan,Percent,0.000012,2023,0.000013,0.000011
1,'DALYs (Disability-Adjusted Life Years)',Japan,Rate,0.457978,2023,0.449524,0.421485
1,'DALYs (Disability-Adjusted Life Years)',Romania,Percent,0.000009,2022,0.000009,0.000009
1,'DALYs (Disability-Adjusted Life Years)',Romania,Rate,0.437354,2022,0.414508,0.441182
1,'DALYs (Disability-Adjusted Life Years)',Chad,Percent,0,2022,0,0
1,'DALYs (Disability-Adjusted Life Years)',Chad,Rate,0.103409,2022,0.115621,0.090723
1,'DALYs (Disability-Adjusted Life Years)',Zimbabwe,Percent,0.000001,2023,0.000002,0.000001
1,'DALYs (Disability-Adjusted Life Years)',Zimbabwe,Rate,0.115706,2023,0.127015,0.103171
1,'DALYs (Disability-Adjusted Life Years)',Azerbaijan,Percent,0.000006,2023,0.000006,0.000005
1,'DALYs (Disability-Adjusted Life Years)',Azerbaijan,Rate,0.21141,2023,0.217594,0.19806
1,'DALYs (Disability-Adjusted Life Years)',India,Percent,0.000003,2023,0.000003,0.000003
1,'DALYs (Disability-Adjusted Life Years)',India,Rate,0.145588,2023,0.15035,0.135669
1,'DALYs (Disability-Adjusted Life Years)',Botswana,Percent,0.000003,2022,0.000003,0.000002
1,'DALYs (Disability-Adjusted Life Years)',Botswana,Rate,0.145342,2022,0.161298,0.123086
1,'DALYs (Disability-Adjusted Life Years)',Togo,Percent,0.000001,2022,0.000002,0.000001
1,'DALYs (Disability-Adjusted Life Years)',Togo,Rate,0.125053,2022,0.13385,0.111661
1,'DALYs (Disability-Adjusted Life Years)',Slovenia,Percent,0.000012,2023,0.000012,0.000011
1,'DALYs (Disability-Adjusted Life Years)',Slovenia,Rate,0.409772,2023,0.394224,0.401556
1,'DALYs (Disability-Adjusted Life Years)','Brunei Darussalam',Number,0.973536,2021,0.958058,0.933641
1,'DALYs (Disability-Adjusted Life Years)','Brunei Darussalam',Percent,0.000009,2021,0.000009,0.000008
1,'DALYs (Disability-Adjusted Life Years)','Brunei Darussalam',Rate,0.215449,2021,0.212023,0.20662
1,'DALYs (Disability-Adjusted Life Years)',Germany,Percent,0.000012,2023,0.000012,0.000011
1,'DALYs (Disability-Adjusted Life Years)',Germany,Rate,0.442151,2023,0.424042,0.431701
1,'DALYs (Disability-Adjusted Life Years)','San Marino',Number,0.115861,2023,0.118309,0.105794
1,'DALYs (Disability-Adjusted Life Years)','San Marino',Percent,0.000011,2023,0.000012,0.00001
1,'DALYs (Disability-Adjusted Life Years)','San Marino',Rate,0.329535,2023,0.336497,0.300903
1,'DALYs (Disability-Adjusted Life Years)',Bahrain,Percent,0.000005,2023,0.000005,0.000004
1,'DALYs (Disability-Adjusted Life Years)',Bahrain,Rate,0.119257,2023,0.12318,0.1083
1,'DALYs (Disability-Adjusted Life Years)',Grenada,Number,0.322901,2022,0.31994,0.311886
1,'DALYs (Disability-Adjusted Life Years)',Grenada,Percent,0.000007,2022,0.000007,0.000006
1,'DALYs (Disability-Adjusted Life Years)',Grenada,Rate,0.283459,2022,0.28086,0.27379
1,'DALYs (Disability-Adjusted Life Years)',Slovakia,Percent,0.000009,2021,0.000009,0.000009
1,'DALYs (Disability-Adjusted Life Years)',Slovakia,Rate,0.429099,2021,0.418403,0.432657
1,'DALYs (Disability-Adjusted Life Years)','Northern Mariana Islands',Number,0.14778,2022,0.151298,0.139028
1,'DALYs (Disability-Adjusted Life Years)','Northern Mariana Islands',Percent,0.000008,2022,0.000008,0.000007
1,'DALYs (Disability-Adjusted Life Years)','Northern Mariana Islands',Rate,0.310406,2022,0.317797,0.292023
1,'DALYs (Disability-Adjusted Life Years)',Brazil,Percent,0.000005,2021,0.000005,0.000005
1,'DALYs (Disability-Adjusted Life Years)',Brazil,Rate,0.220572,2021,0.206457,0.222885
1,'DALYs (Disability-Adjusted Life Years)',Somalia,Percent,0.000001,2023,0.000001,0
1,'DALYs (Disability-Adjusted Life Years)',Somalia,Rate,0.09883,2023,0.107738,0.082714
1,'DALYs (Disability-Adjusted Life Years)',Denmark,Percent,0.000013,2022,0.000013,0.000012
1,'DALYs (Disability-Adjusted Life Years)',Denmark,Rate,0.433679,2022,0.414677,0.425387
1,'DALYs (Disability-Adjusted Life Years)',Paraguay,Percent,0.000005,2022,0.000005,0.000005
1,'DALYs (Disability-Adjusted Life Years)',Paraguay,Rate,0.194035,2022,0.191019,0.182805
1,'DALYs (Disability-Adjusted Life Years)',Kuwait,Percent,0.000003,2022,0.000003,0.000003
1,'DALYs (Disability-Adjusted Life Years)',Kuwait,Rate,0.07221,2022,0.069498,0.071924
1,'DALYs (Disability-Adjusted Life Years)',Thailand,Percent,0.000009,2022,0.00001,0.000009
1,'DALYs (Disability-Adjusted Life Years)',Thailand,Rate,0.374376,2022,0.386083,0.361746
1,'DALYs (Disability-Adjusted Life Years)',Sudan,Percent,0.000003,2023,0.000003,0.000002
1,'DALYs (Disability-Adjusted Life Years)',Sudan,Rate,0.131228,2023,0.149575,0.108804
1,'DALYs (Disability-Adjusted Life Years)',Guatemala,Percent,0.000003,2023,0.000003,0.000003
1,'DALYs (Disability-Adjusted Life Years)',Guatemala,Rate,0.131366,2023,0.129902,0.127538
1,'DALYs (Disability-Adjusted Life Years)',Seychelles,Number,0.330087,2023,0.327504,0.32099
1,'DALYs (Disability-Adjusted Life Years)',Seychelles,Percent,0.000009,2023,0.000009,0.000009
1,'DALYs (Disability-Adjusted Life Years)',Seychelles,Rate,0.310843,2023,0.30841,0.302277
1,'DALYs (Disability-Adjusted Life Years)',Albania,Percent,0.000008,2022,0.000008,0.000007
1,'DALYs (Disability-Adjusted Life Years)',Albania,Rate,0.30252,2022,0.304895,0.286235
1,'DALYs (Disability-Adjusted Life Years)',Niue,Number,0.00414,2022,0.004416,0.003741
1,'DALYs (Disability-Adjusted Life Years)',Niue,Percent,0.000005,2022,0.000005,0.000005
1,'DALYs (Disability-Adjusted Life Years)',Niue,Rate,0.2475,2022,0.26397,0.223606
1,'DALYs (Disability-Adjusted Life Years)','United States Virgin Islands',Number,0.278045,2021,0.272294,0.270626
1,'DALYs (Disability-Adjusted Life Years)','United States Virgin Islands',Percent,0.000007,2021,0.000006,0.000006
1,'DALYs (Disability-Adjusted Life Years)','United States Virgin Islands',Rate,0.31721,2021,0.310649,0.308746
1,'DALYs (Disability-Adjusted Life Years)',Guinea,Percent,0.000001,2023,0.000001,0.000001
1,'DALYs (Disability-Adjusted Life Years)',Guinea,Rate,0.13063,2023,0.14209,0.114597
1,'DALYs (Disability-Adjusted Life Years)',Colombia,Percent,0.000005,2022,0.000005,0.000005
1,'DALYs (Disability-Adjusted Life Years)',Colombia,Rate,0.170744,2022,0.161037,0.172713
1,'DALYs (Disability-Adjusted Life Years)',Mali,Percent,0.000001,2023,0.000001,0.000001
1,'DALYs (Disability-Adjusted Life Years)',Mali,Rate,0.151867,2023,0.159313,0.138073
1,'DALYs (Disability-Adjusted Life Years)','Democratic Republic of the Congo',Percent,0.000002,2022,0.000002,0.000002
1,'DALYs (Disability-Adjusted Life Years)','Democratic Republic of the Congo',Rate,0.17826,2022,0.195298,0.145425
1,'DALYs (Disability-Adjusted Life Years)','Viet Nam',Percent,0.000007,2023,0.000008,0.000007
1,'DALYs (Disability-Adjusted Life Years)','Viet Nam',Rate,0.240074,2023,0.25025,0.213454
1,'DALYs (Disability-Adjusted Life Years)','Lao Peoples Democratic Republic',Percent,0.000003,2022,0.000003,0.000003
1,'DALYs (Disability-Adjusted Life Years)','Lao Peoples Democratic Republic',Rate,0.17958,2022,0.186359,0.164774
1,'DALYs (Disability-Adjusted Life Years)',Greece,Percent,0.000011,2023,0.000011,0.00001
1,'DALYs (Disability-Adjusted Life Years)',Greece,Rate,0.42582,2023,0.406675,0.419456
1,'DALYs (Disability-Adjusted Life Years)',Estonia,Percent,0.000009,2023,0.000009,0.000009
1,'DALYs (Disability-Adjusted Life Years)',Estonia,Rate,0.38366,2023,0.367446,0.379553
1,'DALYs (Disability-Adjusted Life Years)',Slovakia,Percent,0.000011,2022,0.000011,0.00001
1,'DALYs (Disability-Adjusted Life Years)',Slovakia,Rate,0.429725,2022,0.416609,0.428231
1,'DALYs (Disability-Adjusted Life Years)',Uruguay,Percent,0.00001,2021,0.00001,0.00001
1,'DALYs (Disability-Adjusted Life Years)',Uruguay,Rate,0.420542,2021,0.396009,0.421287
1,'DALYs (Disability-Adjusted Life Years)',Paraguay,Percent,0.000005,2023,0.000005,0.000005
1,'DALYs (Disability-Adjusted Life Years)',Paraguay,Rate,0.200436,2023,0.197729,0.189307
1,'DALYs (Disability-Adjusted Life Years)',Namibia,Percent,0.000003,2022,0.000003,0.000002
1,'DALYs (Disability-Adjusted Life Years)',Namibia,Rate,0.160728,2022,0.169793,0.135539
1,'DALYs (Disability-Adjusted Life Years)',Morocco,Percent,0.000004,2022,0.000004,0.000003
1,'DALYs (Disability-Adjusted Life Years)',Morocco,Rate,0.160806,2022,0.17912,0.139322
1,'DALYs (Disability-Adjusted Life Years)',Afghanistan,Percent,0.000001,2023,0.000001,0.000001
1,'DALYs (Disability-Adjusted Life Years)',Afghanistan,Rate,0.075632,2023,0.085595,0.061059
1,'DALYs (Disability-Adjusted Life Years)',Portugal,Percent,0.000011,2023,0.000012,0.000011
1,'DALYs (Disability-Adjusted Life Years)',Portugal,Rate,0.420627,2023,0.40315,0.405905
1,'DALYs (Disability-Adjusted Life Years)',Honduras,Percent,0.000003,2023,0.000003,0.000002
1,'DALYs (Disability-Adjusted Life Years)',Honduras,Rate,0.093948,2023,0.096817,0.086207
1,'DALYs (Disability-Adjusted Life Years)',Palestine,Percent,0.000001,2023,0.000001,0.000001
1,'DALYs (Disability-Adjusted Life Years)',Palestine,Rate,0.10526,2023,0.103738,0.100788
1,'DALYs (Disability-Adjusted Life Years)',Denmark,Percent,0.000013,2023,0.000013,0.000012
1,'DALYs (Disability-Adjusted Life Years)',Denmark,Rate,0.428709,2023,0.410639,0.42112
1,'DALYs (Disability-Adjusted Life Years)',Benin,Percent,0.000001,2023,0.000001,0.000001
1,'DALYs (Disability-Adjusted Life Years)',Benin,Rate,0.093808,2023,0.102312,0.080565
1,'DALYs (Disability-Adjusted Life Years)',Mauritius,Percent,0.000005,2022,0.000004,0.000005
1,'DALYs (Disability-Adjusted Life Years)',Mauritius,Rate,0.219965,2022,0.210341,0.221128
1,'DALYs (Disability-Adjusted Life Years)','Dominican Republic',Percent,0.000005,2022,0.000005,0.000004
1,'DALYs (Disability-Adjusted Life Years)','Dominican Republic',Rate,0.188575,2022,0.186697,0.17475
1,'DALYs (Disability-Adjusted Life Years)',Malaysia,Percent,0.000006,2023,0.000006,0.000006
1,'DALYs (Disability-Adjusted Life Years)',Malaysia,Rate,0.180009,2023,0.177159,0.175659
1,'DALYs (Disability-Adjusted Life Years)',Afghanistan,Percent,0.000001,2022,0.000001,0.000001
1,'DALYs (Disability-Adjusted Life Years)',Afghanistan,Rate,0.074328,2022,0.080978,0.060153
1,'DALYs (Disability-Adjusted Life Years)',Ghana,Percent,0.000002,2022,0.000002,0.000002
1,'DALYs (Disability-Adjusted Life Years)',Ghana,Rate,0.121643,2022,0.126129,0.112992
1,'DALYs (Disability-Adjusted Life Years)',Tonga,Number,0.236771,2022,0.24596,0.216359
1,'DALYs (Disability-Adjusted Life Years)',Tonga,Percent,0.000006,2022,0.000007,0.000006
1,'DALYs (Disability-Adjusted Life Years)',Tonga,Rate,0.227186,2022,0.236004,0.207601
1,'DALYs (Disability-Adjusted Life Years)',Mauritania,Percent,0.000003,2023,0.000003,0.000002
1,'DALYs (Disability-Adjusted Life Years)',Mauritania,Rate,0.151546,2023,0.167038,0.125348
1,'DALYs (Disability-Adjusted Life Years)','Antigua and Barbuda',Number,0.22396,2023,0.222665,0.217442
1,'DALYs (Disability-Adjusted Life Years)','Antigua and Barbuda',Percent,0.000007,2023,0.000007,0.000007
1,'DALYs (Disability-Adjusted Life Years)','Antigua and Barbuda',Rate,0.246595,2023,0.24517,0.239418
1,'DALYs (Disability-Adjusted Life Years)','Brunei Darussalam',Percent,0.000008,2022,0.000009,0.000008
1,'DALYs (Disability-Adjusted Life Years)','Brunei Darussalam',Rate,0.223008,2022,0.220626,0.211885
1,'DALYs (Disability-Adjusted Life Years)',Peru,Percent,0.000007,2022,0.000007,0.000006
1,'DALYs (Disability-Adjusted Life Years)',Peru,Rate,0.208429,2022,0.203089,0.200481
1,'DALYs (Disability-Adjusted Life Years)',Singapore,Percent,0.000009,2023,0.000009,0.000008
1,'DALYs (Disability-Adjusted Life Years)',Singapore,Rate,0.201624,2023,0.19502,0.194119
1,'DALYs (Disability-Adjusted Life Years)',Comoros,Number,0.764563,2023,0.777141,0.699718
1,'DALYs (Disability-Adjusted Life Years)',Comoros,Percent,0.000002,2023,0.000002,0.000002
1,'DALYs (Disability-Adjusted Life Years)',Comoros,Rate,0.086658,2023,0.088083,0.079308
1,'DALYs (Disability-Adjusted Life Years)',Croatia,Percent,0.000011,2023,0.000011,0.000011
1,'DALYs (Disability-Adjusted Life Years)',Croatia,Rate,0.476224,2023,0.454922,0.473036
1,'DALYs (Disability-Adjusted Life Years)','Syrian Arab Republic',Percent,0.000003,2023,0.000003,0.000002
1,'DALYs (Disability-Adjusted Life Years)','Syrian Arab Republic',Rate,0.101158,2023,0.107066,0.091144
1,'DALYs (Disability-Adjusted Life Years)','Sierra Leone',Percent,0.000001,2022,0.000001,0.000001
1,'DALYs (Disability-Adjusted Life Years)','Sierra Leone',Rate,0.130142,2022,0.139435,0.115659
1,'DALYs (Disability-Adjusted Life Years)',Gambia,Percent,0.000001,2022,0.000001,0.000001
1,'DALYs (Disability-Adjusted Life Years)',Gambia,Rate,0.07654,2022,0.084772,0.065075
1,'DALYs (Disability-Adjusted Life Years)',Bangladesh,Percent,0.000005,2022,0.000005,0.000004
1,'DALYs (Disability-Adjusted Life Years)',Bangladesh,Rate,0.188925,2022,0.196358,0.170401
1,'DALYs (Disability-Adjusted Life Years)',Algeria,Percent,0.000003,2023,0.000004,0.000003
1,'DALYs (Disability-Adjusted Life Years)',Algeria,Rate,0.117429,2023,0.130164,0.098803
1,'DALYs (Disability-Adjusted Life Years)',Finland,Percent,0.000009,2022,0.00001,0.000009
1,'DALYs (Disability-Adjusted Life Years)',Finland,Rate,0.353456,2022,0.338434,0.345726
1,'DALYs (Disability-Adjusted Life Years)','Saudi Arabia',Percent,0.000003,2023,0.000003,0.000003
1,'DALYs (Disability-Adjusted Life Years)','Saudi Arabia',Rate,0.085476,2023,0.095211,0.07899
1,'DALYs (Disability-Adjusted Life Years)','American Samoa',Number,0.126787,2023,0.132765,0.114849
1,'DALYs (Disability-Adjusted Life Years)','American Samoa',Percent,0.000006,2023,0.000007,0.000006
1,'DALYs (Disability-Adjusted Life Years)','American Samoa',Rate,0.258838,2023,0.271042,0.234466
1,'DALYs (Disability-Adjusted Life Years)',Gabon,Percent,0.000004,2023,0.000004,0.000004
1,'DALYs (Disability-Adjusted Life Years)',Gabon,Rate,0.213748,2023,0.226498,0.192427
1,'DALYs (Disability-Adjusted Life Years)','Micronesia (Federated States of)',Number,0.20267,2023,0.206892,0.189281
1,'DALYs (Disability-Adjusted Life Years)','Micronesia (Federated States of)',Percent,0.000004,2023,0.000004,0.000004
1,'DALYs (Disability-Adjusted Life Years)','Micronesia (Federated States of)',Rate,0.195924,2023,0.200006,0.182981
1,'DALYs (Disability-Adjusted Life Years)','Equatorial Guinea',Percent,0.000002,2022,0.000003,0.000002
1,'DALYs (Disability-Adjusted Life Years)','Equatorial Guinea',Rate,0.165211,2022,0.187571,0.131855
1,'DALYs (Disability-Adjusted Life Years)',Kazakhstan,Percent,0.000004,2023,0.000004,0.000004
1,'DALYs (Disability-Adjusted Life Years)',Kazakhstan,Rate,0.162517,2023,0.155729,0.161527
1,'DALYs (Disability-Adjusted Life Years)',Greenland,Number,0.257267,2023,0.257947,0.247719
1,'DALYs (Disability-Adjusted Life Years)',Greenland,Percent,0.000011,2023,0.000011,0.00001
1,'DALYs (Disability-Adjusted Life Years)',Greenland,Rate,0.454459,2023,0.455659,0.437593
1,'DALYs (Disability-Adjusted Life Years)',Morocco,Percent,0.000004,2021,0.000004,0.000003
1,'DALYs (Disability-Adjusted Life Years)',Morocco,Rate,0.15687,2021,0.172753,0.138659
1,'DALYs (Disability-Adjusted Life Years)','South Africa',Percent,0.000003,2022,0.000003,0.000003
1,'DALYs (Disability-Adjusted Life Years)','South Africa',Rate,0.201209,2022,0.210121,0.186725
1,'DALYs (Disability-Adjusted Life Years)',Pakistan,Percent,0.000003,2023,0.000004,0.000003
1,'DALYs (Disability-Adjusted Life Years)',Pakistan,Rate,0.165142,2023,0.172813,0.152735
1,'DALYs (Disability-Adjusted Life Years)',Norway,Percent,0.00001,2022,0.00001,0.000009
1,'DALYs (Disability-Adjusted Life Years)',Norway,Rate,0.298671,2022,0.28748,0.290963
1,'DALYs (Disability-Adjusted Life Years)',Switzerland,Percent,0.00001,2023,0.00001,0.000009
1,'DALYs (Disability-Adjusted Life Years)',Switzerland,Rate,0.286004,2023,0.277428,0.274223
1,'DALYs (Disability-Adjusted Life Years)',Fiji,Percent,0.000004,2023,0.000004,0.000004
1,'DALYs (Disability-Adjusted Life Years)',Fiji,Rate,0.215248,2023,0.220877,0.201825
1,'DALYs (Disability-Adjusted Life Years)',Mexico,Percent,0.000004,2023,0.000004,0.000004
1,'DALYs (Disability-Adjusted Life Years)',Mexico,Rate,0.151354,2023,0.142769,0.153631
1,'DALYs (Disability-Adjusted Life Years)',Niger,Percent,0,2023,0,0
1,'DALYs (Disability-Adjusted Life Years)',Niger,Rate,0.102389,2023,0.121636,0.087439
1,'DALYs (Disability-Adjusted Life Years)',Belarus,Percent,0.000008,2023,0.000008,0.000008
1,'DALYs (Disability-Adjusted Life Years)',Belarus,Rate,0.383468,2023,0.372674,0.381751
1,'DALYs (Disability-Adjusted Life Years)','New Zealand',Percent,0.00001,2023,0.000011,0.00001
1,'DALYs (Disability-Adjusted Life Years)','New Zealand',Rate,0.330889,2023,0.318128,0.323296
1,'DALYs (Disability-Adjusted Life Years)',Singapore,Percent,0.000008,2022,0.000008,0.000007
1,'DALYs (Disability-Adjusted Life Years)',Singapore,Rate,0.187943,2022,0.179357,0.186539
1,'DALYs (Disability-Adjusted Life Years)',Brazil,Percent,0.000006,2022,0.000006,0.000006
1,'DALYs (Disability-Adjusted Life Years)',Brazil,Rate,0.228235,2022,0.214628,0.229476
1,'DALYs (Disability-Adjusted Life Years)',Togo,Percent,0.000001,2021,0.000001,0.000001
1,'DALYs (Disability-Adjusted Life Years)',Togo,Rate,0.114197,2021,0.121834,0.101402
1,'DALYs (Disability-Adjusted Life Years)',Uganda,Percent,0.000004,2023,0.000004,0.000003
1,'DALYs (Disability-Adjusted Life Years)',Uganda,Rate,0.214925,2023,0.225003,0.192652
1,'DALYs (Disability-Adjusted Life Years)',Iceland,Percent,0.000011,2023,0.000011,0.00001
1,'DALYs (Disability-Adjusted Life Years)',Iceland,Rate,0.294838,2023,0.288037,0.289728
1,'DALYs (Disability-Adjusted Life Years)','Iran (Islamic Republic of)',Percent,0.000005,2023,0.000006,0.000005
1,'DALYs (Disability-Adjusted Life Years)','Iran (Islamic Republic of)',Rate,0.150959,2023,0.153458,0.142408
1,'DALYs (Disability-Adjusted Life Years)',Palau,Number,0.07366,2022,0.075167,0.069211
1,'DALYs (Disability-Adjusted Life Years)',Palau,Percent,0.000008,2022,0.000008,0.000007
1,'DALYs (Disability-Adjusted Life Years)',Palau,Rate,0.411113,2022,0.419528,0.386283
1,'DALYs (Disability-Adjusted Life Years)','Burkina Faso',Percent,0.000001,2023,0.000001,0.000001
1,'DALYs (Disability-Adjusted Life Years)','Burkina Faso',Rate,0.088702,2023,0.09125,0.080771
1,'DALYs (Disability-Adjusted Life Years)',Czechia,Percent,0.00001,2023,0.00001,0.00001
1,'DALYs (Disability-Adjusted Life Years)',Czechia,Rate,0.380314,2023,0.360152,0.380499
1,'DALYs (Disability-Adjusted Life Years)',Indonesia,Percent,0.000005,2023,0.000005,0.000004
1,'DALYs (Disability-Adjusted Life Years)',Indonesia,Rate,0.192085,2023,0.200952,0.177216
1,'DALYs (Disability-Adjusted Life Years)','Saint Kitts and Nevis',Number,0.127479,2023,0.123229,0.126011
1,'DALYs (Disability-Adjusted Life Years)','Saint Kitts and Nevis',Percent,0.000007,2023,0.000007,0.000006
1,'DALYs (Disability-Adjusted Life Years)','Saint Kitts and Nevis',Rate,0.265454,2023,0.256606,0.262398
1,'DALYs (Disability-Adjusted Life Years)',Lithuania,Percent,0.000009,2023,0.000009,0.000009
1,'DALYs (Disability-Adjusted Life Years)',Lithuania,Rate,0.433264,2023,0.412892,0.433104
1,'DALYs (Disability-Adjusted Life Years)','Lao Peoples Democratic Republic',Percent,0.000004,2023,0.000004,0.000003
1,'DALYs (Disability-Adjusted Life Years)','Lao Peoples Democratic Republic',Rate,0.186212,2023,0.192517,0.16859
1,'DALYs (Disability-Adjusted Life Years)',Guyana,Percent,0.000004,2022,0.000003,0.000004
1,'DALYs (Disability-Adjusted Life Years)',Guyana,Rate,0.192633,2022,0.191467,0.187717
1,'DALYs (Disability-Adjusted Life Years)',Malaysia,Percent,0.000006,2022,0.000006,0.000006
1,'DALYs (Disability-Adjusted Life Years)',Malaysia,Rate,0.18396,2022,0.179534,0.179257
1,'DALYs (Disability-Adjusted Life Years)',Rwanda,Percent,0.000004,2022,0.000004,0.000004
1,'DALYs (Disability-Adjusted Life Years)',Rwanda,Rate,0.216277,2022,0.225478,0.199736
1,'DALYs (Disability-Adjusted Life Years)',Eswatini,Percent,0.000003,2022,0.000003,0.000002
1,'DALYs (Disability-Adjusted Life Years)',Eswatini,Rate,0.219452,2022,0.26509,0.172674
1,'DALYs (Disability-Adjusted Life Years)',Qatar,Percent,0.000002,2023,0.000002,0.000001
1,'DALYs (Disability-Adjusted Life Years)',Qatar,Rate,0.040879,2023,0.044362,0.037574
1,'DALYs (Disability-Adjusted Life Years)',Suriname,Percent,0.000005,2023,0.000005,0.000005
1,'DALYs (Disability-Adjusted Life Years)',Suriname,Rate,0.220857,2023,0.218216,0.211568
1,'DALYs (Disability-Adjusted Life Years)',Netherlands,Percent,0.000012,2022,0.000012,0.000011
1,'DALYs (Disability-Adjusted Life Years)',Netherlands,Rate,0.419634,2022,0.401476,0.410982
1,'DALYs (Disability-Adjusted Life Years)',Libya,Percent,0.000005,2022,0.000005,0.000004
1,'DALYs (Disability-Adjusted Life Years)',Libya,Rate,0.174565,2022,0.185824,0.153056
1,'DALYs (Disability-Adjusted Life Years)',Bermuda,Number,0.260996,2022,0.252505,0.257817
1,'DALYs (Disability-Adjusted Life Years)',Bermuda,Percent,0.000011,2022,0.000011,0.00001
1,'DALYs (Disability-Adjusted Life Years)',Bermuda,Rate,0.411609,2022,0.398217,0.406594
1,'DALYs (Disability-Adjusted Life Years)',Canada,Percent,0.00001,2021,0.00001,0.000009
1,'DALYs (Disability-Adjusted Life Years)',Canada,Rate,0.335025,2021,0.319322,0.329368
1,'DALYs (Disability-Adjusted Life Years)',Haiti,Percent,0.000002,2022,0.000003,0.000002
1,'DALYs (Disability-Adjusted Life Years)',Haiti,Rate,0.190272,2022,0.205385,0.168782
1,'DALYs (Disability-Adjusted Life Years)','El Salvador',Percent,0.000005,2022,0.000005,0.000005
1,'DALYs (Disability-Adjusted Life Years)','El Salvador',Rate,0.213369,2022,0.214647,0.205074
1,'DALYs (Disability-Adjusted Life Years)',Georgia,Percent,0.000008,2023,0.000008,0.000008
1,'DALYs (Disability-Adjusted Life Years)',Georgia,Rate,0.378526,2023,0.373781,0.364396
1,'DALYs (Disability-Adjusted Life Years)',Sweden,Percent,0.00001,2023,0.00001,0.000009
1,'DALYs (Disability-Adjusted Life Years)',Sweden,Rate,0.315898,2023,0.304804,0.304674
1,'DALYs (Disability-Adjusted Life Years)','Puerto Rico',Percent,0.000006,2022,0.000006,0.000006
1,'DALYs (Disability-Adjusted Life Years)','Puerto Rico',Rate,0.264643,2022,0.252014,0.26128
1,'DALYs (Disability-Adjusted Life Years)',Latvia,Percent,0.000009,2023,0.000009,0.000009
1,'DALYs (Disability-Adjusted Life Years)',Latvia,Rate,0.448333,2023,0.427319,0.449715
1,'DALYs (Disability-Adjusted Life Years)',Bhutan,Percent,0.000004,2023,0.000005,0.000004
1,'DALYs (Disability-Adjusted Life Years)',Bhutan,Rate,0.170313,2023,0.179983,0.154631
1,'DALYs (Disability-Adjusted Life Years)',Egypt,Percent,0.000004,2023,0.000004,0.000003
1,'DALYs (Disability-Adjusted Life Years)',Egypt,Rate,0.144742,2023,0.153016,0.130266
1,'DALYs (Disability-Adjusted Life Years)','Cook Islands',Number,0.055398,2023,0.057539,0.050568
1,'DALYs (Disability-Adjusted Life Years)','Cook Islands',Percent,0.000009,2023,0.000009,0.000008
1,'DALYs (Disability-Adjusted Life Years)','Cook Islands',Rate,0.376552,2023,0.391107,0.343721
1,'DALYs (Disability-Adjusted Life Years)','Saint Vincent and the Grenadines',Number,0.338844,2023,0.334644,0.321317
1,'DALYs (Disability-Adjusted Life Years)','Saint Vincent and the Grenadines',Percent,0.000007,2023,0.000007,0.000007
1,'DALYs (Disability-Adjusted Life Years)','Saint Vincent and the Grenadines',Rate,0.291877,2023,0.288259,0.276779
1,'DALYs (Disability-Adjusted Life Years)',Eritrea,Percent,0.000003,2023,0.000003,0.000003
1,'DALYs (Disability-Adjusted Life Years)',Eritrea,Rate,0.238545,2023,0.253359,0.21745
1,'DALYs (Disability-Adjusted Life Years)',Bahamas,Percent,0.000008,2023,0.000008,0.000007
1,'DALYs (Disability-Adjusted Life Years)',Bahamas,Rate,0.314734,2023,0.306953,0.309152
1,'DALYs (Disability-Adjusted Life Years)',Nigeria,Percent,0.000001,2023,0.000001,0.000001
1,'DALYs (Disability-Adjusted Life Years)',Nigeria,Rate,0.118817,2023,0.128714,0.10353
1,'DALYs (Disability-Adjusted Life Years)',Oman,Percent,0.000002,2022,0.000003,0.000002
1,'DALYs (Disability-Adjusted Life Years)',Oman,Rate,0.064364,2022,0.06698,0.057662
1,'DALYs (Disability-Adjusted Life Years)',Tunisia,Percent,0.000008,2023,0.000008,0.000007
1,'DALYs (Disability-Adjusted Life Years)',Tunisia,Rate,0.260451,2023,0.261624,0.247951
1,'DALYs (Disability-Adjusted Life Years)',Bulgaria,Percent,0.000008,2022,0.000008,0.000008
1,'DALYs (Disability-Adjusted Life Years)',Bulgaria,Rate,0.428966,2022,0.407547,0.434387
1,'DALYs (Disability-Adjusted Life Years)','Marshall Islands',Number,0.105937,2023,0.112949,0.09446
1,'DALYs (Disability-Adjusted Life Years)','Marshall Islands',Percent,0.000005,2023,0.000006,0.000005
1,'DALYs (Disability-Adjusted Life Years)','Marshall Islands',Rate,0.254186,2023,0.27101,0.226647
1,'DALYs (Disability-Adjusted Life Years)',Tuvalu,Number,0.029971,2023,0.032124,0.026663
1,'DALYs (Disability-Adjusted Life Years)',Tuvalu,Percent,0.000005,2023,0.000005,0.000004
1,'DALYs (Disability-Adjusted Life Years)',Tuvalu,Rate,0.271895,2023,0.291423,0.241882
1,'DALYs (Disability-Adjusted Life Years)',Bahrain,Percent,0.000004,2022,0.000005,0.000004
1,'DALYs (Disability-Adjusted Life Years)',Bahrain,Rate,0.108914,2022,0.111808,0.100474
1,'DALYs (Disability-Adjusted Life Years)',Ireland,Percent,0.000011,2023,0.000011,0.00001
1,'DALYs (Disability-Adjusted Life Years)',Ireland,Rate,0.30118,2023,0.289468,0.292821
1,'DALYs (Disability-Adjusted Life Years)',France,Percent,0.000013,2023,0.000013,0.000012
1,'DALYs (Disability-Adjusted Life Years)',France,Rate,0.406721,2023,0.389844,0.396691
1,'DALYs (Disability-Adjusted Life Years)',Burundi,Percent,0.000002,2023,0.000002,0.000002
1,'DALYs (Disability-Adjusted Life Years)',Burundi,Rate,0.168632,2023,0.180483,0.149359
1,'DALYs (Disability-Adjusted Life Years)',Guinea,Percent,0.000001,2022,0.000001,0.000001
1,'DALYs (Disability-Adjusted Life Years)',Guinea,Rate,0.125042,2022,0.137336,0.112192
1,'DALYs (Disability-Adjusted Life Years)',India,Percent,0.000003,2022,0.000003,0.000003
1,'DALYs (Disability-Adjusted Life Years)',India,Rate,0.141253,2022,0.14556,0.13302
1,'DALYs (Disability-Adjusted Life Years)',Türkiye,Percent,0.000007,2023,0.000007,0.000006
1,'DALYs (Disability-Adjusted Life Years)',Türkiye,Rate,0.243163,2023,0.248672,0.223053
1,'DALYs (Disability-Adjusted Life Years)',Somalia,Percent,0.000001,2022,0.000001,0
1,'DALYs (Disability-Adjusted Life Years)',Somalia,Rate,0.097641,2022,0.106905,0.084311
1,'DALYs (Disability-Adjusted Life Years)',China,Percent,0.00001,2023,0.00001,0.000009
1,'DALYs (Disability-Adjusted Life Years)',China,Rate,0.294033,2023,0.30094,0.273702
1,'DALYs (Disability-Adjusted Life Years)','Russian Federation',Percent,0.000007,2023,0.000007,0.000006
1,'DALYs (Disability-Adjusted Life Years)','Russian Federation',Rate,0.340934,2023,0.323019,0.342847
1,'DALYs (Disability-Adjusted Life Years)',Cameroon,Percent,0.000002,2023,0.000002,0.000001
1,'DALYs (Disability-Adjusted Life Years)',Cameroon,Rate,0.135388,2023,0.142716,0.122295
1,'DALYs (Disability-Adjusted Life Years)',Tokelau,Number,0.002484,2023,0.002657,0.002224
1,'DALYs (Disability-Adjusted Life Years)',Tokelau,Percent,0.000004,2023,0.000005,0.000004
1,'DALYs (Disability-Adjusted Life Years)',Tokelau,Rate,0.153743,2023,0.164494,0.137691
1,'DALYs (Disability-Adjusted Life Years)',Myanmar,Percent,0.000003,2023,0.000003,0.000003
1,'DALYs (Disability-Adjusted Life Years)',Myanmar,Rate,0.203166,2023,0.212878,0.185834
1,'DALYs (Disability-Adjusted Life Years)',Nepal,Percent,0.000003,2023,0.000003,0.000002
1,'DALYs (Disability-Adjusted Life Years)',Nepal,Rate,0.115476,2023,0.12198,0.105804
1,'DALYs (Disability-Adjusted Life Years)','North Macedonia',Percent,0.00001,2023,0.00001,0.00001
1,'DALYs (Disability-Adjusted Life Years)','North Macedonia',Rate,0.401091,2023,0.393012,0.386211
1,'DALYs (Disability-Adjusted Life Years)',Mongolia,Percent,0.000009,2023,0.000009,0.000008
1,'DALYs (Disability-Adjusted Life Years)',Mongolia,Rate,0.286024,2023,0.288801,0.273884
1,'DALYs (Disability-Adjusted Life Years)',Kiribati,Number,0.158235,2022,0.171675,0.135573
1,'DALYs (Disability-Adjusted Life Years)',Kiribati,Percent,0.000003,2022,0.000003,0.000002
1,'DALYs (Disability-Adjusted Life Years)',Kiribati,Rate,0.125746,2022,0.136426,0.107737
1,'DALYs (Disability-Adjusted Life Years)',Kyrgyzstan,Percent,0.000004,2023,0.000004,0.000003
1,'DALYs (Disability-Adjusted Life Years)',Kyrgyzstan,Rate,0.112327,2023,0.108389,0.111229
1,'DALYs (Disability-Adjusted Life Years)',Jordan,Percent,0.000005,2023,0.000005,0.000005
1,'DALYs (Disability-Adjusted Life Years)',Jordan,Rate,0.121113,2023,0.121384,0.115535
1,'DALYs (Disability-Adjusted Life Years)','United Kingdom',Percent,0.000011,2023,0.000011,0.00001
1,'DALYs (Disability-Adjusted Life Years)','United Kingdom',Rate,0.390217,2023,0.370668,0.38466
1,'DALYs (Disability-Adjusted Life Years)',Barbados,Percent,0.00001,2023,0.00001,0.00001
1,'DALYs (Disability-Adjusted Life Years)',Barbados,Rate,0.425242,2023,0.413852,0.418924
1,'DALYs (Disability-Adjusted Life Years)',Spain,Percent,0.000011,2022,0.000011,0.00001
1,'DALYs (Disability-Adjusted Life Years)',Spain,Rate,0.365824,2022,0.349545,0.356399
1,'DALYs (Disability-Adjusted Life Years)',Australia,Percent,0.000009,2023,0.00001,0.000009
1,'DALYs (Disability-Adjusted Life Years)',Australia,Rate,0.282785,2023,0.272335,0.272006
1,'DALYs (Disability-Adjusted Life Years)',Germany,Percent,0.000011,2022,0.000011,0.00001
1,'DALYs (Disability-Adjusted Life Years)',Germany,Rate,0.438534,2022,0.417224,0.429927
1,'DALYs (Disability-Adjusted Life Years)',Djibouti,Percent,0.000004,2023,0.000004,0.000003
1,'DALYs (Disability-Adjusted Life Years)',Djibouti,Rate,0.19197,2023,0.204968,0.172929
1,'DALYs (Disability-Adjusted Life Years)','Trinidad and Tobago',Percent,0.000007,2023,0.000007,0.000006
1,'DALYs (Disability-Adjusted Life Years)','Trinidad and Tobago',Rate,0.306656,2023,0.297921,0.303258
1,'DALYs (Disability-Adjusted Life Years)','San Marino',Number,0.102362,2022,0.103803,0.095899
1,'DALYs (Disability-Adjusted Life Years)','San Marino',Percent,0.000009,2022,0.00001,0.000008
1,'DALYs (Disability-Adjusted Life Years)','San Marino',Rate,0.292504,2022,0.296622,0.274035
1,'DALYs (Disability-Adjusted Life Years)','Antigua and Barbuda',Number,0.212747,2022,0.208951,0.20674
1,'DALYs (Disability-Adjusted Life Years)','Antigua and Barbuda',Percent,0.000007,2022,0.000007,0.000006
1,'DALYs (Disability-Adjusted Life Years)','Antigua and Barbuda',Rate,0.23472,2022,0.230532,0.228093
1,'DALYs (Disability-Adjusted Life Years)',Australia,Percent,0.000009,2022,0.00001,0.000009
1,'DALYs (Disability-Adjusted Life Years)',Australia,Rate,0.28796,2022,0.276536,0.279141
1,'DALYs (Disability-Adjusted Life Years)',Guam,Number,0.362497,2023,0.35489,0.354764
1,'DALYs (Disability-Adjusted Life Years)',Guam,Percent,0.000006,2023,0.000006,0.000006
1,'DALYs (Disability-Adjusted Life Years)',Guam,Rate,0.230002,2023,0.225176,0.225096
1,'DALYs (Disability-Adjusted Life Years)','Saint Lucia',Number,0.460103,2022,0.458272,0.441718
1,'DALYs (Disability-Adjusted Life Years)','Saint Lucia',Percent,0.000007,2022,0.000007,0.000006
1,'DALYs (Disability-Adjusted Life Years)','Saint Lucia',Rate,0.257879,2022,0.256853,0.247575
1,'DALYs (Disability-Adjusted Life Years)','United States Virgin Islands',Number,0.310678,2023,0.310309,0.294498
1,'DALYs (Disability-Adjusted Life Years)','United States Virgin Islands',Percent,0.000008,2023,0.000008,0.000007
1,'DALYs (Disability-Adjusted Life Years)','United States Virgin Islands',Rate,0.369619,2023,0.369179,0.350369
1,'DALYs (Disability-Adjusted Life Years)',Madagascar,Percent,0.000003,2023,0.000003,0.000003
1,'DALYs (Disability-Adjusted Life Years)',Madagascar,Rate,0.199457,2023,0.206529,0.185102
1,'DALYs (Disability-Adjusted Life Years)',Dominica,Number,0.233365,2023,0.232747,0.223681
1,'DALYs (Disability-Adjusted Life Years)',Dominica,Percent,0.000009,2023,0.000009,0.000008
1,'DALYs (Disability-Adjusted Life Years)',Dominica,Rate,0.337404,2023,0.336511,0.323403
1,'DALYs (Disability-Adjusted Life Years)','Cabo Verde',Percent,0.000006,2023,0.000007,0.000006
1,'DALYs (Disability-Adjusted Life Years)','Cabo Verde',Rate,0.205217,2023,0.218119,0.185406
1,'DALYs (Disability-Adjusted Life Years)',Uganda,Percent,0.000003,2022,0.000003,0.000003
1,'DALYs (Disability-Adjusted Life Years)',Uganda,Rate,0.202911,2022,0.21237,0.1843
1,'DALYs (Disability-Adjusted Life Years)','Iran (Islamic Republic of)',Percent,0.000005,2022,0.000005,0.000004
1,'DALYs (Disability-Adjusted Life Years)','Iran (Islamic Republic of)',Rate,0.149903,2022,0.151289,0.142218
1,'DALYs (Disability-Adjusted Life Years)',Hungary,Percent,0.000011,2023,0.000011,0.000011
1,'DALYs (Disability-Adjusted Life Years)',Hungary,Rate,0.488875,2023,0.460275,0.493894
1,'DALYs (Disability-Adjusted Life Years)',Nicaragua,Percent,0.000004,2023,0.000004,0.000004
1,'DALYs (Disability-Adjusted Life Years)',Nicaragua,Rate,0.129012,2023,0.132279,0.122587
1,'DALYs (Disability-Adjusted Life Years)',Argentina,Percent,0.000008,2023,0.000009,0.000008
1,'DALYs (Disability-Adjusted Life Years)',Argentina,Rate,0.274903,2023,0.262825,0.273294
1,'DALYs (Disability-Adjusted Life Years)','Sri Lanka',Percent,0.000006,2023,0.000006,0.000005
1,'DALYs (Disability-Adjusted Life Years)','Sri Lanka',Rate,0.201518,2023,0.199649,0.190398
1,'DALYs (Disability-Adjusted Life Years)','United Republic of Tanzania',Percent,0.000002,2023,0.000002,0.000002
1,'DALYs (Disability-Adjusted Life Years)','United Republic of Tanzania',Rate,0.11679,2023,0.124631,0.104144
1,'DALYs (Disability-Adjusted Life Years)','Taiwan (Province of China)',Percent,0.000012,2023,0.000012,0.000011
1,'DALYs (Disability-Adjusted Life Years)','Taiwan (Province of China)',Rate,0.420438,2023,0.400908,0.417218
1,'DALYs (Disability-Adjusted Life Years)',Azerbaijan,Percent,0.000005,2022,0.000006,0.000005
1,'DALYs (Disability-Adjusted Life Years)',Azerbaijan,Rate,0.199817,2022,0.207202,0.18759
1,'DALYs (Disability-Adjusted Life Years)',Italy,Percent,0.000011,2023,0.000012,0.00001
1,'DALYs (Disability-Adjusted Life Years)',Italy,Rate,0.400627,2023,0.387869,0.383209
1,'DALYs (Disability-Adjusted Life Years)',Honduras,Percent,0.000003,2022,0.000003,0.000002
1,'DALYs (Disability-Adjusted Life Years)',Honduras,Rate,0.094708,2022,0.096512,0.086693
1,'DALYs (Disability-Adjusted Life Years)',Liberia,Percent,0.000002,2022,0.000002,0.000001
1,'DALYs (Disability-Adjusted Life Years)',Liberia,Rate,0.159702,2022,0.175422,0.13373
1,'DALYs (Disability-Adjusted Life Years)',Pakistan,Percent,0.000003,2022,0.000003,0.000003
1,'DALYs (Disability-Adjusted Life Years)',Pakistan,Rate,0.1646,2022,0.172134,0.15334
1,'DALYs (Disability-Adjusted Life Years)',Austria,Percent,0.000011,2023,0.000011,0.00001
1,'DALYs (Disability-Adjusted Life Years)',Austria,Rate,0.355164,2023,0.339357,0.346019
1,'DALYs (Disability-Adjusted Life Years)',Greenland,Number,0.272825,2022,0.274614,0.262761
1,'DALYs (Disability-Adjusted Life Years)',Greenland,Percent,0.000011,2022,0.000011,0.00001
1,'DALYs (Disability-Adjusted Life Years)',Greenland,Rate,0.482357,2022,0.485519,0.464562
1,'DALYs (Disability-Adjusted Life Years)',Czechia,Percent,0.00001,2022,0.00001,0.00001
1,'DALYs (Disability-Adjusted Life Years)',Czechia,Rate,0.401823,2022,0.380256,0.402834
1,'DALYs (Disability-Adjusted Life Years)',Comoros,Number,0.725332,2022,0.738685,0.668242
1,'DALYs (Disability-Adjusted Life Years)',Comoros,Percent,0.000002,2022,0.000002,0.000002
1,'DALYs (Disability-Adjusted Life Years)',Comoros,Rate,0.083871,2022,0.085415,0.07727
1,'DALYs (Disability-Adjusted Life Years)','Micronesia (Federated States of)',Number,0.198685,2022,0.203222,0.183409
1,'DALYs (Disability-Adjusted Life Years)','Micronesia (Federated States of)',Percent,0.000004,2022,0.000004,0.000004
1,'DALYs (Disability-Adjusted Life Years)','Micronesia (Federated States of)',Rate,0.191992,2022,0.196376,0.177231
1,'DALYs (Disability-Adjusted Life Years)',Cuba,Percent,0.00001,2023,0.00001,0.000009
1,'DALYs (Disability-Adjusted Life Years)',Cuba,Rate,0.371038,2023,0.369279,0.356261
1,'DALYs (Disability-Adjusted Life Years)',Greece,Percent,0.00001,2022,0.00001,0.00001
1,'DALYs (Disability-Adjusted Life Years)',Greece,Rate,0.418209,2022,0.397049,0.411364
1,'DALYs (Disability-Adjusted Life Years)',Poland,Percent,0.000011,2023,0.000011,0.000011
1,'DALYs (Disability-Adjusted Life Years)',Poland,Rate,0.430788,2023,0.407403,0.430256
1,'DALYs (Disability-Adjusted Life Years)','Syrian Arab Republic',Percent,0.000003,2022,0.000003,0.000002
1,'DALYs (Disability-Adjusted Life Years)','Syrian Arab Republic',Rate,0.100277,2022,0.104459,0.090728
1,'DALYs (Disability-Adjusted Life Years)',Nauru,Number,0.036487,2023,0.040334,0.032198
1,'DALYs (Disability-Adjusted Life Years)',Nauru,Percent,0.000005,2023,0.000005,0.000004
1,'DALYs (Disability-Adjusted Life Years)',Nauru,Rate,0.295894,2023,0.327093,0.26111
1,'DALYs (Disability-Adjusted Life Years)',Tuvalu,Number,0.029665,2022,0.031741,0.026219
1,'DALYs (Disability-Adjusted Life Years)',Tuvalu,Percent,0.000005,2022,0.000005,0.000004
1,'DALYs (Disability-Adjusted Life Years)',Tuvalu,Rate,0.269532,2022,0.288402,0.238223
1,'DALYs (Disability-Adjusted Life Years)',Yemen,Percent,0.000002,2023,0.000002,0.000001
1,'DALYs (Disability-Adjusted Life Years)',Yemen,Rate,0.081329,2023,0.09248,0.065268
1,'DALYs (Disability-Adjusted Life Years)',Lesotho,Percent,0.000002,2023,0.000002,0.000001
1,'DALYs (Disability-Adjusted Life Years)',Lesotho,Rate,0.171759,2023,0.199293,0.141475
1,'DALYs (Disability-Adjusted Life Years)','Solomon Islands',Percent,0.000005,2023,0.000005,0.000004
1,'DALYs (Disability-Adjusted Life Years)','Solomon Islands',Rate,0.210044,2023,0.21967,0.18942
1,'DALYs (Disability-Adjusted Life Years)',Senegal,Percent,0.000002,2023,0.000002,0.000002
1,'DALYs (Disability-Adjusted Life Years)',Senegal,Rate,0.105937,2023,0.11196,0.095043
1,'DALYs (Disability-Adjusted Life Years)',Switzerland,Percent,0.00001,2022,0.00001,0.000009
1,'DALYs (Disability-Adjusted Life Years)',Switzerland,Rate,0.308776,2022,0.299322,0.297107
1,'DALYs (Disability-Adjusted Life Years)',Slovakia,Percent,0.000011,2023,0.000011,0.000011
1,'DALYs (Disability-Adjusted Life Years)',Slovakia,Rate,0.420943,2023,0.408814,0.418227
1,'DALYs (Disability-Adjusted Life Years)',Barbados,Percent,0.00001,2022,0.00001,0.000009
1,'DALYs (Disability-Adjusted Life Years)',Barbados,Rate,0.417562,2022,0.403409,0.411306
1,'DALYs (Disability-Adjusted Life Years)',Mauritius,Percent,0.000005,2023,0.000005,0.000005
1,'DALYs (Disability-Adjusted Life Years)',Mauritius,Rate,0.231588,2023,0.223181,0.23095
1,'DALYs (Disability-Adjusted Life Years)',Estonia,Percent,0.000009,2022,0.000009,0.000009
1,'DALYs (Disability-Adjusted Life Years)',Estonia,Rate,0.387607,2022,0.370867,0.383746
1,'DALYs (Disability-Adjusted Life Years)',Grenada,Number,0.331221,2023,0.333717,0.316634
1,'DALYs (Disability-Adjusted Life Years)',Grenada,Percent,0.000007,2023,0.000007,0.000007
1,'DALYs (Disability-Adjusted Life Years)',Grenada,Rate,0.290514,2023,0.292703,0.27772
1,'DALYs (Disability-Adjusted Life Years)','Venezuela (Bolivarian Republic of)',Percent,0.000006,2023,0.000006,0.000006
1,'DALYs (Disability-Adjusted Life Years)','Venezuela (Bolivarian Republic of)',Rate,0.267441,2023,0.264923,0.258193
1,'DALYs (Disability-Adjusted Life Years)',Angola,Percent,0.000002,2023,0.000002,0.000002
1,'DALYs (Disability-Adjusted Life Years)',Angola,Rate,0.137115,2023,0.146804,0.118355
1,'DALYs (Disability-Adjusted Life Years)',Uruguay,Percent,0.000012,2023,0.000012,0.000012
1,'DALYs (Disability-Adjusted Life Years)',Uruguay,Rate,0.451602,2023,0.428702,0.44708
1,'DALYs (Disability-Adjusted Life Years)',Malta,Percent,0.000009,2023,0.000009,0.000008
1,'DALYs (Disability-Adjusted Life Years)',Malta,Rate,0.264516,2023,0.259577,0.256
1,'DALYs (Disability-Adjusted Life Years)',Ecuador,Percent,0.000005,2023,0.000005,0.000005
1,'DALYs (Disability-Adjusted Life Years)',Ecuador,Rate,0.16864,2023,0.160288,0.169767
1,'DALYs (Disability-Adjusted Life Years)',Kazakhstan,Percent,0.000004,2022,0.000004,0.000004
1,'DALYs (Disability-Adjusted Life Years)',Kazakhstan,Rate,0.159103,2022,0.152156,0.15931
1,'DALYs (Disability-Adjusted Life Years)','Burkina Faso',Percent,0.000001,2022,0.000001,0.000001
1,'DALYs (Disability-Adjusted Life Years)','Burkina Faso',Rate,0.082779,2022,0.085199,0.075148
1,'DALYs (Disability-Adjusted Life Years)',Lebanon,Percent,0.000007,2023,0.000008,0.000007
1,'DALYs (Disability-Adjusted Life Years)',Lebanon,Rate,0.222464,2023,0.224424,0.21093
1,'DALYs (Disability-Adjusted Life Years)',Eritrea,Percent,0.000003,2022,0.000003,0.000003
1,'DALYs (Disability-Adjusted Life Years)',Eritrea,Rate,0.235753,2022,0.246558,0.218434
1,'DALYs (Disability-Adjusted Life Years)','Côte dIvoire',Percent,0.000002,2023,0.000002,0.000001
1,'DALYs (Disability-Adjusted Life Years)','Côte dIvoire',Rate,0.136069,2023,0.147677,0.118296
1,'DALYs (Disability-Adjusted Life Years)',Uzbekistan,Percent,0.000003,2023,0.000003,0.000003
1,'DALYs (Disability-Adjusted Life Years)',Uzbekistan,Rate,0.126639,2023,0.121103,0.127271
1,'DALYs (Disability-Adjusted Life Years)',Cyprus,Percent,0.000009,2023,0.000009,0.000009
1,'DALYs (Disability-Adjusted Life Years)',Cyprus,Rate,0.265849,2023,0.269104,0.250972
1,'DALYs (Disability-Adjusted Life Years)',Suriname,Percent,0.000005,2022,0.000005,0.000004
1,'DALYs (Disability-Adjusted Life Years)',Suriname,Rate,0.217949,2022,0.21466,0.209569
1,'DALYs (Disability-Adjusted Life Years)',Timor-Leste,Percent,0.000003,2023,0.000003,0.000003
1,'DALYs (Disability-Adjusted Life Years)',Timor-Leste,Rate,0.130551,2023,0.141576,0.118875
1,'DALYs (Disability-Adjusted Life Years)','Brunei Darussalam',Percent,0.000009,2023,0.000009,0.000008
1,'DALYs (Disability-Adjusted Life Years)','Brunei Darussalam',Rate,0.230863,2023,0.228513,0.220109
1,'DALYs (Disability-Adjusted Life Years)',Ireland,Percent,0.00001,2022,0.000011,0.000009
1,'DALYs (Disability-Adjusted Life Years)',Ireland,Rate,0.290911,2022,0.279249,0.28615
1,'DALYs (Disability-Adjusted Life Years)','Northern Mariana Islands',Number,0.147164,2023,0.151945,0.136093
1,'DALYs (Disability-Adjusted Life Years)','Northern Mariana Islands',Percent,0.000008,2023,0.000008,0.000007
1,'DALYs (Disability-Adjusted Life Years)','Northern Mariana Islands',Rate,0.310578,2023,0.32067,0.287213
1,'DALYs (Disability-Adjusted Life Years)',Serbia,Percent,0.000011,2023,0.000011,0.00001
1,'DALYs (Disability-Adjusted Life Years)',Serbia,Rate,0.474038,2023,0.47112,0.457782
1,'DALYs (Disability-Adjusted Life Years)',Brazil,Percent,0.000006,2023,0.000006,0.000006
1,'DALYs (Disability-Adjusted Life Years)',Brazil,Rate,0.233639,2023,0.220729,0.233409
1,'DALYs (Disability-Adjusted Life Years)',Togo,Percent,0.000002,2023,0.000002,0.000001
1,'DALYs (Disability-Adjusted Life Years)',Togo,Rate,0.130482,2023,0.14234,0.112445
1,'DALYs (Disability-Adjusted Life Years)',Vanuatu,Number,0.355103,2023,0.379129,0.314977
1,'DALYs (Disability-Adjusted Life Years)',Vanuatu,Percent,0.000003,2023,0.000003,0.000002
1,'DALYs (Disability-Adjusted Life Years)',Vanuatu,Rate,0.107603,2023,0.114883,0.095444
1,'DALYs (Disability-Adjusted Life Years)',Mauritania,Percent,0.000003,2022,0.000003,0.000002
1,'DALYs (Disability-Adjusted Life Years)',Mauritania,Rate,0.14364,2022,0.154805,0.122129
1,'DALYs (Disability-Adjusted Life Years)',Congo,Percent,0.000002,2023,0.000003,0.000002
1,'DALYs (Disability-Adjusted Life Years)',Congo,Rate,0.151946,2023,0.174519,0.12812
1,'DALYs (Disability-Adjusted Life Years)',Lithuania,Percent,0.000009,2022,0.000008,0.000008
1,'DALYs (Disability-Adjusted Life Years)',Lithuania,Rate,0.436198,2022,0.414771,0.437941
1,'DALYs (Disability-Adjusted Life Years)',Morocco,Percent,0.000004,2023,0.000004,0.000003
1,'DALYs (Disability-Adjusted Life Years)',Morocco,Rate,0.160313,2023,0.182251,0.138839
1,'DALYs (Disability-Adjusted Life Years)',Ghana,Percent,0.000002,2023,0.000002,0.000002
1,'DALYs (Disability-Adjusted Life Years)',Ghana,Rate,0.127359,2023,0.134298,0.116499
1,'DALYs (Disability-Adjusted Life Years)',Norway,Percent,0.00001,2023,0.000011,0.00001
1,'DALYs (Disability-Adjusted Life Years)',Norway,Rate,0.31026,2023,0.299089,0.302013
1,'DALYs (Disability-Adjusted Life Years)',Canada,Percent,0.00001,2023,0.00001,0.000009
1,'DALYs (Disability-Adjusted Life Years)',Canada,Rate,0.347712,2023,0.333891,0.340919
1,'DALYs (Disability-Adjusted Life Years)',Colombia,Percent,0.000006,2023,0.000006,0.000005
1,'DALYs (Disability-Adjusted Life Years)',Colombia,Rate,0.171103,2023,0.162064,0.172136
1,'DALYs (Disability-Adjusted Life Years)',Albania,Percent,0.000008,2023,0.000008,0.000007
1,'DALYs (Disability-Adjusted Life Years)',Albania,Rate,0.275717,2023,0.280532,0.26288
1,'DALYs (Disability-Adjusted Life Years)','Equatorial Guinea',Percent,0.000003,2023,0.000003,0.000002
1,'DALYs (Disability-Adjusted Life Years)','Equatorial Guinea',Rate,0.181129,2023,0.201774,0.139163
1,'DALYs (Disability-Adjusted Life Years)',Namibia,Percent,0.000003,2023,0.000003,0.000002
1,'DALYs (Disability-Adjusted Life Years)',Namibia,Rate,0.163083,2023,0.172038,0.136513
1,'DALYs (Disability-Adjusted Life Years)',Nigeria,Percent,0.000001,2022,0.000001,0.000001
1,'DALYs (Disability-Adjusted Life Years)',Nigeria,Rate,0.114116,2022,0.122858,0.098992
1,'DALYs (Disability-Adjusted Life Years)',Eswatini,Percent,0.000003,2023,0.000003,0.000002
1,'DALYs (Disability-Adjusted Life Years)',Eswatini,Rate,0.221374,2023,0.270875,0.170778
